Name: 311 (Citric acid)
RT: 0.550000
PUBCHEM_COMPOUND_CID: 311
Precursor_type: [M-H2O-H]-
PrecursorMZ: 173.0068
Comment: 0.55_173.0068m/z
Formula: C6H8O7
Num Peaks: 48
54.2299 952.1953
59.1738 1032.4387
64.4345 1079.6869
75.0088 226775.3917
75.0163 857.2328
83.1399 1164.3645
83.9309 1878.6097
84.9572 19368.3456
85.0293 948.2066
85.9470 41407.2891
92.9285 2120.7059
97.4436 901.8019
97.9312 7398.2640
98.9369 62296.4724
99.9258 159425.4180
100.9202 1437.3785
100.9337 64344.9282
100.9526 218388.3636
100.9646 795.9031
101.9400 11791.7485
103.1396 1034.4924
104.9546 2586.2242
105.0189 24558.9245
114.9333 2314.1987
114.9524 4062.0497
115.9025 2009.7327
115.9206 103515.6611
116.9286 158850.3926
116.9473 320668.4106
116.9615 1180.1401
116.9678 2972.2485
118.9662 10654.4570
126.9316 14602.1455
128.9474 388500.6409
128.9646 4093.2899
129.9344 14023.8140
130.4277 976.9593
131.0828 2045.9911
144.9425 317635.5688
144.9704 1555.4984
147.9473 4134.0803
153.9681 973.2868
154.9478 46976.5670
155.8869 9855.9640
156.8959 6564.1876
172.8875 21155.6255
172.9367 39041.4775
172.9926 10643.3904


Name: 5961 (Glutamine)
RT: 0.580000
PUBCHEM_COMPOUND_CID: 5961
Precursor_type: [M-H]-
PrecursorMZ: 145.0619
Comment: 0.58_145.0619m/z
Formula: C5H10N2O3
Num Peaks: 25
58.0296 22423.4023
67.0302 22400.3457
72.0098 21831.5371
74.0249 82301.8594
80.9956 20021.4082
82.0295 30520.3242
84.0456 182211.8750
86.0242 21557.1895
97.0400 23357.8086
98.0245 37042.8164
99.0561 27996.7520
99.9258 39875.6172
100.9338 234472.4941
100.9486 24280.1074
100.9539 12681.5869
101.0715 131415.8125
107.0238 24729.5137
109.0408 329486.5625
115.9204 90498.6953
120.7754 15774.9395
125.0356 76284.0156
127.0512 993356.4160
127.0741 19866.4941
128.0351 381368.9375
145.0619 926273.6875

Name: 107812 (Hypotaurine)
RT: 0.610000
PUBCHEM_COMPOUND_CID: 107812
Precursor_type: [M-H]-
PrecursorMZ: 108.0125
Comment: 0.61_108.0125m/z
Formula: C2H7NO2S
Num Peaks: 7
52.5271 3424.6492
61.6767 3450.8132
63.9623 706920.5625
64.6436 3242.2810
64.9701 89719.8984
90.9240 7366.0820
108.0125 75160.4141

Name: 6288 (Threonine)
RT: 0.610000
PUBCHEM_COMPOUND_CID: 6288
Precursor_type: [M-H]-
PrecursorMZ: 118.0510
Comment: 0.61_118.0510m/z
Formula: C4H9NO3
Num Peaks: 7
61.9882 10043.8223
72.0091 87284.3594
74.0246 172820.0469
99.9253 9422.9199
100.9259 101946.6250
117.9287 1125147.9766
118.0507 63959.5195

Name: 83887 (D-Aspartic acid)
RT: 0.630000
PUBCHEM_COMPOUND_CID: 83887
Precursor_type: [M-H]-
PrecursorMZ: 132.0303
Comment: 0.63_132.0303m/z
Formula: C4H7NO4
Num Peaks: 20
52.7464 781.3318
54.0851 776.4531
58.2024 986.6973
62.4559 797.8725
63.4633 832.9526
69.7435 840.7930
71.0139 19751.9749
72.1463 811.2625
72.9346 843.5449
81.0543 876.8345
87.3790 836.9719
88.0404 172108.3735
92.9297 874.4531
99.9254 1056.4976
100.9344 7945.3180
108.9503 857.1694
114.0200 10968.1682
115.0036 50099.5029
115.9206 82581.2545
132.0303 87734.3228

Name: 1175 (Uric acid)
RT: 1.150000
PUBCHEM_COMPOUND_CID: 1175
Precursor_type: [M-H]-
PrecursorMZ: 167.0211
Comment: 1.15_167.0211m/z
Formula: C5H4N4O3
Num Peaks: 14
50.5129 5674.3120
69.0094 63100.9554
72.9926 2591.3359
96.0202 230521.0845
96.9894 26913.2314
97.0043 51524.3892
98.9543 39154.5635
123.0310 24875.3867
124.0153 1700568.1084
124.0324 1615.7905
138.9291 19168.7949
142.0265 21985.7734
149.5747 7187.8032
167.0212 5122736.2842

Name: 1044 (Purine)
RT: 1.710000
PUBCHEM_COMPOUND_CID: 1044
Precursor_type: [M-H]-
PrecursorMZ: 119.0363
Comment: 1.71_119.0363m/z
Formula: C5H4N4
Num Peaks: 13
51.3790 4251.5239
72.9933 17033.9570
75.0085 8953.6641
81.0249 3704.2317
89.9249 12259.5723
90.7764 3976.5146
90.9335 10315.7827
92.0245 5607.6641
95.5163 3830.6458
99.9254 7280.1802
101.9239 75304.3672
118.9269 877562.4849
119.0362 367949.4063

Name: 846 (Kynurenine)
RT: 2.960000
PUBCHEM_COMPOUND_CID: 846
Precursor_type: [M-H]-
PrecursorMZ: 207.0776
Comment: 2.96_207.0776m/z
Formula: C10H12N2O3
Num Peaks: 37
61.3629 4379.4692
72.0091 35619.7578
75.0028 8691.9014
87.9256 28866.9414
90.9336 15274.5742
92.0510 4179.6294
99.9245 4752.3340
103.9200 35521.1719
104.9280 5266.9810
111.6830 4681.5586
114.0435 4115.5586
116.9277 4411.7578
118.0661 33428.7773
118.9930 120872.6172
119.0126 5826.8188
123.9463 5050.9702
128.0505 87775.1953
131.0374 37906.3125
133.9419 9896.6396
144.0456 303828.5010
146.0613 285090.9307
160.9403 7638.0483
162.8926 25928.1465
162.9829 327933.0430
172.0402 41806.7070
176.8932 4280.1812
178.8957 14622.8203
179.9361 11788.2197
180.9197 8766.7520
189.8508 6955.9277
190.0512 354016.1016
192.8669 5329.7358
194.9014 6032.4102
206.8461 32766.8027
206.9730 126144.6328
207.0193 5226.9238
207.0774 5953.0073


Name: 5862 ((2R)-2-amino-3-sulfanylpropanoic acid)
RT: 0.570000
PUBCHEM_COMPOUND_CID: 5862
Precursor_type: [M-H]-
PrecursorMZ: 120.0125
Comment: 0.57_120.0125m/z
Formula: C3H7NO2S
Num Peaks: 9
50.2779 3054.3823
54.8517 3397.3455
79.9570 11747.7744
90.9230 7245.2534
91.9322 18540.5000
91.9428 3742.4751
92.0416 3821.7080
119.9318 9838.6230
119.9760 23056.9219

Name: 1123 (Taurine)
RT: 0.600000
PUBCHEM_COMPOUND_CID: 1123
Precursor_type: [M-H]-
PrecursorMZ: 124.0074
Comment: 0.60_124.0074m/z
Formula: C2H7NO3S
Num Peaks: 7
64.9706 15303.2368
66.9661 16460.8496
79.9574 729572.3506
81.9530 554467.2500
95.9815 5581.5830
107.9834 24524.2520
108.9761 25047.0293

Name: 7027 (D-(+)-Gluconic acid δ-lactone)
RT: 0.860000
PUBCHEM_COMPOUND_CID: 7027
Precursor_type: [M-H]-
PrecursorMZ: 177.0406
Comment: 0.86_177.0406m/z
Formula: C6H10O6
Num Peaks: 47
50.9653 1747.7517
51.8224 1679.0913
57.0345 32410.3518
58.5885 1983.4012
59.0138 19373.1738
63.1314 1811.7971
66.9120 2107.7786
68.9981 4734.6841
71.0139 52010.5342
75.0089 11041.0518
85.0296 44472.0229
86.9387 8808.1431
89.0245 9704.2969
89.1278 1838.6774
89.9257 13702.3682
90.9335 39761.6956
92.9959 6802.7100
99.0088 138023.1660
99.9260 113333.2031
101.0238 2632.9641
106.9297 2169.9314
111.0098 2184.6829
113.0019 2210.4932
115.9208 7559.7014
116.9284 32902.8228
117.0197 2157.5767
118.9662 11565.6763
120.9643 5443.5144
124.6896 1853.8215
129.0194 170956.1890
130.9290 1949.7391
130.9652 5011.5212
132.9445 36361.3770
132.9683 5614.3145
133.9419 117344.4414
141.0188 2246.4558
146.8984 9972.1604
146.9611 37127.1934
148.9622 105576.2148
158.9254 3147.7988
158.9618 6302.2417
159.8864 23364.0713
160.8894 5842.1431
176.8597 54120.5715
176.8994 26393.7188
176.9604 18291.9873
177.0416 5283.2593


Name: 5951 (L-Serine)
RT: 0.580000
PUBCHEM_COMPOUND_CID: 5951
Precursor_type: [M-H]-
PrecursorMZ: 104.0353
Comment: 0.58_104.0353m/z
Formula: C3H7NO3
Num Peaks: 11
56.7958 3658.7622
57.9630 3309.2820
72.0090 37389.6563
72.9932 4447.4966
74.0245 53161.1797
75.0084 8204.3916
89.9250 4533.7026
90.9233 12042.1484
91.9311 3584.9998
103.9200 10638.4873
104.0349 36600.5000

Name: 9750 (L-Citrulline)
RT: 0.640000
PUBCHEM_COMPOUND_CID: 9750
Precursor_type: [M-H]-
PrecursorMZ: 174.0885
Comment: 0.64_174.0885m/z
Formula: C6H13N3O3
Num Peaks: 32
52.0910 4738.6455
61.9882 21679.6621
70.4095 5275.3535
83.9309 5321.3667
85.9467 35237.3516
86.9764 23048.0996
88.9878 9256.1338
99.9258 157905.5781
99.9402 10750.3428
100.9341 51026.5664
100.9492 7537.0615
101.9804 15038.5957
102.9719 43353.7734
103.8877 5874.8184
115.9208 71964.6172
116.9289 120842.7109
116.9463 8075.0713
117.9475 9979.7393
118.9663 287663.7500
118.9815 7486.5420
127.8900 12908.3447
129.9362 6735.7349
129.9463 7319.0317
130.9441 23393.2578
130.9665 43255.9727
131.0826 1863101.3320
145.9427 10629.5195
146.9612 2211546.5000
155.9462 6432.9385
157.0622 9555.6660
173.8809 5374.6934
174.0888 41870.8047

Name: 6175 (Cytidine)
RT: 0.890000
PUBCHEM_COMPOUND_CID: 6175
Precursor_type: [M-H]-
PrecursorMZ: 242.0783
Comment: 0.89_243.0856n
Formula: C9H13N3O5
Num Peaks: 30
51.4773 1765.2040
67.0307 4788.1812
81.0458 21983.8538
89.0008 1898.0953
91.0303 7372.7993
99.9253 2314.8318
101.0521 1792.9026
103.9207 16972.1909
107.9513 6496.8701
109.0407 195260.5183
110.0355 12939.4541
111.4084 2016.6293
118.9661 9452.2603
125.6043 1733.6051
130.9665 10175.2188
146.9612 196745.9531
146.9888 5405.0571
151.9166 6258.0161
151.9413 8170.1431
152.0470 23401.2024
153.9036 7725.1218
161.8929 2286.4636
162.8923 2711.7346
174.9563 355982.6875
174.9828 2729.6147
174.9936 1981.0161
201.9657 1878.8446
241.8723 3136.8677
241.8789 3122.8293
242.0781 54350.6782

Name: 6175 (Cytidine)
RT: 0.890000
PUBCHEM_COMPOUND_CID: 6175
Precursor_type: [M+FA-H]-
PrecursorMZ: 288.0839
Comment: 0.89_243.0856n
Formula: C9H13N3O5
Num Peaks: 15
65.7319 3481.6414
81.0456 4709.7090
91.0304 4588.3779
99.9265 4399.5625
109.0407 68075.0137
109.0566 4159.0171
152.0484 5816.2373
174.9224 4420.4209
174.9578 9492.1924
175.8622 75667.0527
176.8947 3470.3164
182.0198 3687.5471
190.8501 5719.6660
219.8529 18303.2090
242.0786 118601.9297

Name: 938 (Nicotinic acid)
RT: 1.120000
PUBCHEM_COMPOUND_CID: 938
Precursor_type: [M-H]-
PrecursorMZ: 122.0248
Comment: 1.12_122.0248m/z
Formula: C6H5NO2
Num Peaks: 4
68.0064 3364.4265
78.0348 181350.7344
78.0439 3580.5632
122.0246 217748.7969

Name: 6021 (Inosine)
RT: 2.650000
PUBCHEM_COMPOUND_CID: 6021
Precursor_type: [M-H]-
PrecursorMZ: 267.0735
Comment: 2.65_267.0735m/z
Formula: C10H12N4O5
Num Peaks: 23
65.4035 10217.0723
92.0257 45123.5234
98.9571 22723.3203
100.9687 12153.5156
108.0208 51433.8359
114.9509 18265.0098
126.9514 13499.9355
135.0313 8294314.5313
142.9470 39300.1055
149.0463 24109.7227
154.8956 87711.7734
154.9458 42402.5977
155.8940 99826.6797
170.9412 67762.7656
176.8613 39333.4141
177.0427 39349.0195
198.8869 33418.6367
198.9369 101675.7500
199.8830 28995.9453
218.8011 15101.4131
220.8631 20100.2129
222.9787 12170.0518
267.0735 6300935.8125


Name: 867 (Malonic acid)
RT: 0.400000
PUBCHEM_COMPOUND_CID: 867
Precursor_type: [M+FA-H]-
PrecursorMZ: 149.0092
Comment: 0.40_149.0092m/z
Formula: C3H4O4
Num Peaks: 14
51.9091 3551.0002
53.5763 3048.5435
70.2919 3444.0935
87.0092 16201.3203
90.9232 18979.8789
91.9314 24536.9414
92.9296 26037.7734
93.9471 20278.0410
94.7809 3526.0256
103.9318 30615.0498
109.9411 4689.3022
119.9265 12457.2314
148.9007 11473.7119
149.0095 13851.9316

Name: 10690 (D-Gluconic acid solution)
RT: 0.650000
PUBCHEM_COMPOUND_CID: 10690
Precursor_type: [M-H]-
PrecursorMZ: 195.0512
Comment: 0.65_195.0512m/z
Formula: C6H12O7
Num Peaks: 39
59.0138 9888.8809
71.0139 5468.5444
75.0087 33618.9805
76.2671 3850.6047
87.0087 4712.5439
88.9456 5990.9351
88.9878 10226.5098
89.0246 12185.7148
90.9232 13924.0518
90.9340 16033.7324
91.9203 25355.0488
91.9322 46577.2461
92.9290 626589.5859
93.9471 22171.2598
96.9601 15594.3379
99.0085 7849.1196
99.9255 4275.0776
102.9333 8671.9834
103.9320 31947.5625
104.9289 360506.3730
105.9464 6227.0156
107.9160 21954.3945
108.9233 15653.7666
110.9747 6691.3047
116.9290 4846.2422
119.9262 19873.2578
129.0187 26900.2285
130.9924 100008.0234
132.9350 64599.2080
147.9217 15785.4404
148.9193 252233.1982
150.9408 8782.3760
162.8944 6641.2505
176.8934 59343.5195
177.0384 4916.6226
177.9000 12068.2324
194.9050 140945.8965
194.9891 8486.9805
195.0516 74488.8203

Name: 6508 ((-) Quinic acid)
RT: 1.240000
PUBCHEM_COMPOUND_CID: 6508
Precursor_type: [M-H]-
PrecursorMZ: 191.0563
Comment: 1.24_191.0563m/z
Formula: C7H12O6
Num Peaks: 50
55.0739 429.0685
56.9432 9326.7660
58.9588 109744.5432
58.9650 3460.6788
59.0140 9518.9254
61.9885 15474.4414
64.8203 533.4569
70.0659 442.8515
71.0139 4425.1676
79.0990 399.4031
85.0297 89462.9836
87.0088 17372.2426
87.9255 58775.6331
88.9335 2271.1205
90.9341 14064.2146
90.9481 1397.6807
91.9316 418.8479
93.0346 24800.1266
99.9257 12899.4370
100.9338 35332.0966
102.9488 1711861.0133
102.9622 6185.9396
103.9204 12493.3224
105.9365 1575.4065
106.9435 736.3512
109.0305 5949.8095
111.0452 12962.8869
116.9043 420.0906
116.9238 3772.7554
118.9205 1992.1417
123.9460 699.0288
126.1503 424.3568
127.0399 29986.5662
134.9152 15577.3682
144.9827 419.4887
146.8984 216546.2625
146.9387 663187.6712
146.9618 1094.0082
147.9189 65322.6809
162.8930 296299.0188
162.9245 1840.4558
163.8982 401.8324
163.9505 437.2951
171.0290 8680.6284
173.0458 19081.6750
183.7897 413.3148
190.8531 18561.7675
190.8584 4678.5685
190.8891 28865.8637
191.0562 1835503.6096


Name: 33032 (L-Glutamic acid)
RT: 0.630000
PUBCHEM_COMPOUND_CID: 33032
Precursor_type: [M-H2O-H]-
PrecursorMZ: 128.0354
Comment: 0.63_147.0532n
Formula: C5H9NO4
Num Peaks: 6
57.5312 3191.8247
58.6071 3929.6516
82.0295 4110.6743
99.9258 12420.7334
127.2256 4128.2197
128.0352 101650.7734

Name: 33032 (L-Glutamic acid)
RT: 0.630000
PUBCHEM_COMPOUND_CID: 33032
Precursor_type: [M-H]-
PrecursorMZ: 146.0460
Comment: 0.63_147.0532n
Formula: C5H9NO4
Num Peaks: 35
50.4409 927.7383
58.9592 7249.3298
61.9832 759.7924
61.9883 59585.8548
63.9878 3724.4117
66.3219 691.1633
69.9638 845.4065
71.4082 681.1827
82.0298 1405.6291
84.0454 2353.9967
84.1269 716.2541
85.0294 3948.8734
87.9255 12055.6467
89.3935 772.5057
89.9261 9049.6650
90.9334 55463.1781
99.9260 68005.5008
100.0403 1676.2887
101.0241 1452.9859
101.9338 20191.0336
101.9534 746.4253
102.0560 708856.8613
102.0708 919.9199
102.9335 32427.2742
102.9491 47048.3703
105.9362 844.6523
108.8718 716.7056
115.9205 5896.2423
116.9223 26507.6003
118.9655 27799.1891
128.0354 403585.5357
128.0576 1305.2144
130.9400 2018.0560
145.9008 3000.3791
146.0461 283885.6354

Name: 439174 (N-Acetyl-D-glucosamine)
RT: 0.710000
PUBCHEM_COMPOUND_CID: 439174
Precursor_type: [M+FA-H]-
PrecursorMZ: 266.0882
Comment: 0.71_266.0882m/z
Formula: C8H15NO6
Num Peaks: 50
51.4600 2091.3921
55.0192 2624.1292
57.9879 2047.4592
58.0295 3198.0801
59.0137 112659.5166
61.9881 4854.5752
71.0139 13857.6797
83.0138 13406.4531
89.0244 59254.4478
90.8314 2291.7622
96.9601 68113.9192
98.9567 13559.7061
100.0403 68727.0059
101.0243 120735.5692
114.9519 4256.5396
116.9288 7826.2522
119.0349 252092.6084
119.0516 3884.6892
124.9356 4897.7334
126.9526 6424.5886
129.9757 3391.6724
141.8320 1880.6919
141.9507 5487.1982
142.0513 16758.3379
142.9460 24857.4961
146.0468 18715.5371
153.9518 6188.1968
154.8954 37410.6973
154.9465 26376.5059
160.0604 3513.8130
168.0268 3090.1150
169.8834 2672.1665
169.9462 7477.0371
170.9421 35539.1279
175.8619 53928.3984
190.8522 3431.5818
197.9411 11328.9180
198.8864 10123.0117
198.9356 66896.9219
201.9561 3322.3420
202.0728 3476.0032
219.8543 9885.3359
219.9031 4753.7397
220.0834 14068.5366
220.8628 4091.7595
220.8679 5614.5044
221.8203 2296.4319
237.9139 3468.5674
247.9489 3779.3149
265.9930 7685.7930

Name: 439216 (L-Dihydroorotic acid)
RT: 0.840000
PUBCHEM_COMPOUND_CID: 439216
Precursor_type: [M-H]-
PrecursorMZ: 157.0255
Comment: 0.84_157.0255m/z
Formula: C5H6N2O4
Num Peaks: 22
70.0298 335276.5459
70.0390 7901.0532
78.5155 1663.6393
84.9903 5433.8608
86.0240 15478.8350
88.9878 24139.0771
89.0240 31148.6846
96.0086 33171.1563
96.9601 31668.1113
99.9258 3827.0361
100.9341 1807.2803
100.9529 3775.0659
113.0356 1853482.6953
113.9414 2694.7168
114.0197 307356.2744
115.9200 3904.9014
116.9476 5778.4351
128.9673 2386.6021
142.1123 9124.7939
144.9439 5466.4243
156.8946 299698.6719
157.0256 260961.2354


Name: 1015 (O-Phosphorylethanolamine)
RT: 0.860000
PUBCHEM_COMPOUND_CID: 1015
Precursor_type: [M-H]-
PrecursorMZ: 140.0119
Comment: 0.86_140.0119m/z
Formula: C2H8NO4P
Num Peaks: 8
69.0243 1792.0138
78.9591 621595.0313
95.9185 1663.6444
100.1378 2009.0184
102.9837 1851.6329
111.8943 4962.5193
112.8921 5096.9158
140.0120 57478.9844

Name: 6137 (L-Methionine)
RT: 1.060000
PUBCHEM_COMPOUND_CID: 6137
Precursor_type: [M-H]-
PrecursorMZ: 148.0439
Comment: 1.06_148.0439m/z
Formula: C5H11NO2S
Num Peaks: 21
53.3211 2224.9734
54.3785 1528.3114
72.9921 1709.8785
75.9367 15040.1772
87.0080 6822.1091
89.9257 2308.2439
90.9234 72670.2173
90.9335 6582.8010
91.9316 183851.0840
91.9425 1972.4456
93.9472 61045.1660
100.0403 8867.1357
101.9238 1966.8572
103.9313 5573.5061
104.9287 19058.8291
107.9272 7602.3052
109.9422 12174.7666
119.9265 35040.2461
127.7601 1843.1694
132.9336 2218.8953
148.0438 22670.1487

Name: 439194 (GLYCERATE)
RT: 1.720000
PUBCHEM_COMPOUND_CID: 439194
Precursor_type: [M-H]-
PrecursorMZ: 105.0194
Comment: 1.72_105.0194m/z
Formula: C3H6O4
Num Peaks: 27
50.8874 315.7247
52.1000 324.1995
55.3720 706.2891
56.2341 317.7780
56.9982 2000.4526
59.0136 27593.9592
60.0169 284.9013
63.1251 333.3117
64.1112 283.9861
64.6614 304.6671
70.7729 275.2775
72.9930 59498.8368
73.9965 1950.8238
75.0088 73115.4535
75.0177 1230.1524
76.0120 2538.2532
79.0304 387.8286
83.9888 301.7664
89.9257 7027.5910
90.9234 946.6708
91.9212 19843.8851
91.9320 426.7886
92.9295 4991.5387
93.9182 389.2037
103.9206 317.9439
104.9287 3960.8014
105.0194 288644.6179

Name: 439176 (METHYLTHIOADENOSINE)
RT: 4.940000
PUBCHEM_COMPOUND_CID: 439176
Precursor_type: [M+FA-H]-
PrecursorMZ: 342.0881
Comment: 4.94_342.0881m/z
Formula: C11H15N5O3S
Num Peaks: 37
89.9256 5409.4189
90.9230 8101.2910
90.9333 102824.9087
93.9465 11942.9102
97.6835 3442.5093
102.9335 31379.3887
103.9316 44393.5859
105.9465 11319.7607
109.9421 4339.6196
115.9193 5769.9370
119.9259 15924.1260
120.8901 4844.2241
130.9285 15894.4453
134.0471 90516.7578
134.9239 4700.4238
146.9228 45146.8867
147.9212 153282.5068
149.9369 161881.1094
161.8660 8881.3447
163.8839 7470.5781
164.8792 8889.5518
165.8600 12417.0669
177.8620 32404.5078
178.8682 4486.3530
179.8783 6064.5684
181.8568 9625.0205
183.8710 11632.4150
192.9283 14959.6777
193.9268 80615.4878
205.8567 15798.5586
206.8967 12073.2607
207.8727 46304.2588
223.8651 6053.3511
224.8639 6000.6523
251.8596 7229.1089
286.8704 5010.6104
296.0830 4296.2905


Name: 67678 (L-Cystine)
RT: 0.580000
PUBCHEM_COMPOUND_CID: 67678
Precursor_type: [M-H]-
PrecursorMZ: 239.0167
Comment: 0.58_239.0167m/z
Formula: C6H12N2O4S2
Num Peaks: 21
64.9525 33006.6328
71.9913 24159.5195
74.0070 533083.4595
86.0247 94733.8594
96.9604 10303.2773
102.9568 11820.9170
117.9970 62100.6094
120.0125 1640842.7988
126.6690 5341.6548
148.9189 9036.2051
151.9846 239146.7344
163.8872 7159.6445
181.8996 10685.0605
183.9129 24611.8730
192.8836 16670.8594
210.8950 33211.4805
220.3178 6424.5903
220.8611 13254.6563
227.2752 6271.6680
238.8701 71303.6816
239.0169 144042.8281

Name: 967 (Orotic acid)
RT: 0.870000
PUBCHEM_COMPOUND_CID: 967
Precursor_type: [M-H]-
PrecursorMZ: 155.0100
Comment: 0.87_155.0100m/z
Formula: C5H4N2O4
Num Peaks: 23
52.5471 1810.7369
66.9442 7027.5249
66.9942 8526.8110
71.6840 1753.6888
80.9465 2309.6597
84.1109 2172.9075
87.0089 13307.0020
96.9409 34949.8486
96.9603 92678.5742
98.9568 95187.6211
110.9567 4167.9678
110.9842 83956.1328
111.0200 1688133.4326
114.9515 192794.7837
117.4006 2011.2515
124.3537 2065.7510
124.9363 4483.5933
126.9515 2577.9880
142.9467 142482.9702
154.8954 173941.0938
154.9460 7266.5288
154.9738 17133.1777
155.0101 45745.6675

Name: 190 (Adenine)
RT: 0.940000
PUBCHEM_COMPOUND_CID: 190
Precursor_type: [M-H]-
PrecursorMZ: 134.0473
Comment: 0.94_134.0473m/z
Formula: C5H5N5
Num Peaks: 5
75.0084 5416.9619
107.0362 31244.0859
116.9201 22429.6348
133.9228 4085.5034
134.0472 241578.1406

Name: 1188 (Xanthine)
RT: 1.480000
PUBCHEM_COMPOUND_CID: 1188
Precursor_type: [M-H]-
PrecursorMZ: 151.0262
Comment: 1.48_151.0262m/z
Formula: C5H4N4O2
Num Peaks: 29
52.5756 1889.4928
57.2995 1693.7078
64.9459 4812.8740
64.9986 3194.6919
75.0087 17345.7344
75.0250 2798.3464
90.9232 3358.2607
91.9317 5124.7769
92.9283 16846.3633
94.9265 11143.4912
103.9198 3134.9900
104.9291 12969.5771
106.9261 4734.3184
106.9928 6849.4185
108.0204 158438.6641
108.0376 5422.2476
108.9357 4099.2900
108.9889 19441.5801
109.0241 79666.7266
119.9258 3822.2715
122.9591 3310.7178
126.0313 4432.5146
127.0338 3546.4946
130.9930 5570.1406
132.9331 3746.8660
133.0152 3304.6365
134.0200 2513.3308
140.9509 3367.3113
151.0262 666316.0415

Name: 5789 (Thymidine)
RT: 3.630000
PUBCHEM_COMPOUND_CID: 5789
Precursor_type: [M-H]-
PrecursorMZ: 241.0831
Comment: 3.63_242.0904n
Formula: C10H14N2O5
Num Peaks: 21
69.6181 4665.9053
103.9200 8270.2744
109.5117 3368.8357
116.4992 3615.0164
125.0359 64397.0469
128.9448 4594.4893
150.0552 8043.2139
150.9157 60132.5430
151.0513 143117.9878
151.0778 7437.0376
168.9272 7123.3315
172.9387 8005.7407
182.8987 5226.1987
184.9143 6139.9609
194.9070 27935.5508
196.8661 11700.8047
198.0775 11365.0547
212.9182 23581.0664
222.8605 14071.8809
240.8709 79092.6406
241.0831 856997.0586

Name: 5789 (Thymidine)
RT: 3.630000
PUBCHEM_COMPOUND_CID: 5789
Precursor_type: [M+FA-H]-
PrecursorMZ: 287.0886
Comment: 3.63_242.0904n
Formula: C10H14N2O5
Num Peaks: 22
54.7419 1941.8285
71.9244 1624.5792
79.8987 1922.1953
88.8586 1940.0861
99.9257 12042.1440
116.9267 4459.4922
125.0360 18390.8125
151.0511 27194.0098
174.8640 74965.1563
175.8619 88248.9727
184.9151 3524.2788
186.9324 2078.7090
189.8504 35448.3638
196.9097 1875.9482
218.8625 28790.3809
219.8505 32056.2520
230.9239 5817.6089
241.0831 813649.6094
242.1367 4082.9978
242.9220 2586.9094
274.6071 2453.0149
287.0755 4029.1812


Name: 107689 (L-(+)-Lactic acid)
RT: 0.420000
PUBCHEM_COMPOUND_CID: 107689
Precursor_type: [M+FA-H]-
PrecursorMZ: 135.0299
Comment: 0.42_135.0299m/z
Formula: C3H6O3
Num Peaks: 12
59.0137 11158.7241
71.0138 6326.0737
72.9928 8053.5090
75.0088 131704.4297
87.0086 55232.0039
89.0242 10259.4678
89.0555 1613.8888
99.9251 2233.1108
117.0195 10478.3789
134.8648 62391.8730
134.8942 27536.1982
135.0294 151009.7017

Name: 172313 (FRUCTOSE BISPHOSPHATE)
RT: 0.850000
PUBCHEM_COMPOUND_CID: 172313
Precursor_type: [M-H2O-H]-
PrecursorMZ: 320.9766
Comment: 0.85_320.9766m/z
Formula: C6H14O12P2
Num Peaks: 48
56.8014 3727.1338
73.0297 4425.7827
90.9234 10180.5400
90.9347 7063.3452
91.9314 34619.6172
93.0348 10126.5928
95.0502 8144.3623
102.9336 26083.0684
106.9287 14116.7344
107.9264 19175.5215
111.0445 8904.8545
133.9411 5134.3267
137.0246 7033.8877
139.0407 6854.0679
139.9683 11036.2412
141.9841 9405.2861
143.9635 9778.8213
144.9425 10113.0703
146.9609 33766.0352
147.9220 7850.7749
155.9653 4686.4556
167.9634 16924.3965
169.3796 4860.2627
169.9778 24599.4844
171.9590 8761.2080
172.9377 17310.1758
173.0459 17947.3184
173.9734 5815.9512
174.9564 66670.6953
183.9592 10621.7900
185.9738 9676.7441
195.9591 4202.2368
211.9536 28876.4063
213.9681 36668.7813
215.9866 8734.5732
218.8566 5353.5156
218.8967 4603.3481
229.9657 9759.5049
230.9774 4609.8613
231.9794 198151.0518
232.8906 11096.9014
233.9944 14922.1748
247.9775 7118.9868
249.9890 6638.3188
257.9597 12241.7607
263.9689 41561.9102
275.9691 222775.5625
277.8752 4217.5806


Name: 439224 (L-Carnosine)
RT: 0.550000
PUBCHEM_COMPOUND_CID: 439224
Precursor_type: [M-H]-
PrecursorMZ: 225.0994
Comment: 0.55_225.0994m/z
Formula: C9H14N4O3
Num Peaks: 50
56.7618 2385.0564
58.0299 4949.9326
64.0330 2280.1211
67.0301 16425.1152
70.0305 2919.5710
73.5128 2369.4517
74.0244 2690.0557
75.0080 4389.8074
80.0378 2592.0056
81.0459 17855.7559
84.9905 7237.5603
87.0566 13712.2051
88.0404 75213.1741
88.9878 26244.3516
93.0459 25316.8008
96.9611 2014.3889
103.4308 2068.9656
104.9277 3300.4119
108.0564 6032.2637
110.0723 643068.6328
115.0513 7215.4395
120.2945 2388.3425
123.9026 3356.3540
127.0511 39700.4688
127.0707 4179.3643
134.0715 5642.8564
134.9432 2275.1135
136.0514 5104.2236
137.0357 27093.1621
141.9134 2284.5049
146.0720 6325.8760
146.5311 1991.2229
152.0824 4194.4648
154.0622 868260.4238
156.8943 11829.3647
156.9735 4305.1738
161.0831 17855.6660
163.0989 85721.5547
164.0828 10729.7500
178.9078 5105.7402
180.8703 12536.7739
181.1092 58963.9961
196.8661 74313.0718
196.9212 4270.8960
198.8803 14799.4817
207.0892 19796.4277
208.0735 3640.6626
217.0742 5450.3335
224.8615 12384.8252
225.0994 814229.1758

Name: 8742 (Shikimic acid)
RT: 0.860000
PUBCHEM_COMPOUND_CID: 8742
Precursor_type: [M-H]-
PrecursorMZ: 173.0456
Comment: 0.86_174.0529n
Formula: C7H10O5
Num Peaks: 50
55.0188 5565.6558
57.0345 4231.9180
58.0063 3217.7529
59.0137 4946.2822
65.0397 4295.7593
69.0349 6494.0801
71.0144 10841.2529
71.0504 5337.8945
73.0295 203183.3477
75.0088 166733.9063
75.0192 3010.3416
81.0347 15624.4111
83.0503 68822.4253
84.9574 15888.3276
85.0297 34178.7197
85.9466 28333.0479
93.0345 390201.3745
97.9308 4434.1543
98.9369 55131.0282
99.0088 74656.5469
99.0452 70737.4063
99.9258 144580.3750
100.9336 51041.6582
100.9525 158598.9707
100.9672 4886.7773
101.0247 5936.9409
101.9405 8256.9551
105.0191 14411.1592
109.0297 4389.7471
111.0451 226055.5703
115.9206 106069.2891
116.9287 137195.1523
116.9476 223103.3447
116.9675 3236.0056
126.9329 12070.1367
128.9476 256034.5151
129.0195 36231.9082
129.0565 5377.1958
129.9362 10493.6431
137.0244 167507.9961
143.0350 37911.9194
144.9425 205036.1938
144.9697 7236.8435
154.9472 30256.8438
155.0353 87211.6465
155.0652 3116.7556
172.8865 18293.0264
172.9375 20725.3652
172.9916 3814.0957
173.0456 168538.6152

Name: 8742 (Shikimic acid)
RT: 0.860000
PUBCHEM_COMPOUND_CID: 8742
Precursor_type: [M+FA-H]-
PrecursorMZ: 219.0511
Comment: 0.86_174.0529n
Formula: C7H10O5
Num Peaks: 31
70.9373 3685.4702
73.0298 13570.0996
83.0505 4362.4756
93.0343 38659.7227
98.1016 3576.3418
99.0094 9073.1475
99.0457 7572.6143
99.9259 55396.3477
111.0451 31215.8105
116.9283 21151.0605
118.9675 5812.6846
137.0242 21441.8809
143.0372 6416.6338
146.9616 6170.8975
154.9481 7866.5298
155.0344 20027.5332
159.8940 4502.2505
160.8929 6940.2617
172.9210 7101.2568
173.0458 181221.7983
173.9227 7251.8921
174.8640 95402.4219
174.9150 19363.2383
175.8619 160109.3281
189.8510 35221.8438
190.8495 30033.3770
190.9345 12631.0479
192.9292 23941.7070
200.9201 15853.5288
218.9292 5197.0415
218.9845 6804.0791

Name: 6029 (Uridine)
RT: 1.640000
PUBCHEM_COMPOUND_CID: 6029
Precursor_type: [M-H]-
PrecursorMZ: 243.0623
Comment: 1.64_244.0696n
Formula: C9H12N2O6
Num Peaks: 50
66.0349 59100.8550
66.3080 3376.3811
68.0143 5069.1675
71.0141 6742.4795
79.8127 3972.9705
82.0298 126378.9224
84.0455 7393.6929
94.0300 10006.1172
96.0455 12395.2959
99.9252 2895.3740
108.0458 27444.7734
110.0247 1071582.8247
110.9463 2049.4556
111.0191 75366.0469
117.0195 15875.3789
118.9656 21852.2559
120.0440 5951.8867
122.0248 59593.1855
124.0405 20465.1719
126.0555 4271.2837
130.9665 22318.2397
132.0306 9077.2842
138.0192 7238.9463
138.0571 9877.7100
140.0353 161234.5938
146.9612 468353.1792
146.9846 4354.6182
152.0354 357096.1836
152.0572 5215.0386
152.0648 6511.9692
153.9138 112024.9414
154.9588 2797.1213
162.8937 4572.9209
164.0366 7447.0918
171.9234 9489.7241
174.9562 873304.2485
182.0452 14447.2646
184.9069 2380.0752
197.9037 45699.3047
198.8820 3927.9558
199.9208 3953.8191
200.0565 594761.1309
200.0918 9258.6748
214.0325 3521.8306
215.9151 16924.9404
219.5136 3050.7031
224.8654 2994.8962
242.8237 3441.5334
242.8722 30447.3584
243.0623 556761.2891

Name: 6029 (Uridine)
RT: 1.640000
PUBCHEM_COMPOUND_CID: 6029
Precursor_type: [M+FA-H]-
PrecursorMZ: 289.0679
Comment: 1.64_244.0696n
Formula: C9H12N2O6
Num Peaks: 37
55.9931 2093.4316
58.7902 1957.8800
66.0347 7525.0737
71.0145 2141.1843
82.0299 14961.9639
84.0454 2344.5239
89.8746 2420.6292
96.0454 2827.6606
99.9259 3998.1963
108.0453 5196.4624
109.2237 1988.1689
110.0246 197450.7734
111.0198 161329.3184
116.0366 2099.0354
117.0196 3200.1316
122.0242 9653.2754
124.0398 3892.8628
132.0302 2462.6887
140.0352 33265.3125
147.9230 2351.1094
152.0354 93223.8542
174.9204 2709.8438
174.9559 10389.7256
175.8608 2505.6843
176.8273 1991.7095
176.8599 31813.2666
176.8935 2406.5881
182.0454 3437.7947
184.2073 1795.3661
191.8449 6260.6460
192.9274 2385.9656
200.0564 179854.3164
200.0919 2729.2878
202.9138 1961.3860
220.8483 7022.9426
243.0622 728658.1563
276.3688 2042.7775

Name: 1135 (Thymine)
RT: 2.200000
PUBCHEM_COMPOUND_CID: 1135
Precursor_type: [M-H]-
PrecursorMZ: 125.0357
Comment: 2.20_125.0357m/z
Formula: C5H6N2O2
Num Peaks: 5
52.3943 1512.4059
85.5356 1833.7877
104.1890 1592.1097
110.4033 1831.9832
125.0359 106302.7715

Name: 6305 (L-Tryptophan)
RT: 4.420000
PUBCHEM_COMPOUND_CID: 6305
Precursor_type: [M-H]-
PrecursorMZ: 203.0827
Comment: 4.42_203.0827m/z
Formula: C11H12N2O2
Num Peaks: 41
68.9346 2125.7131
69.7732 1915.2849
72.0091 76067.4722
74.0248 113117.5483
85.9460 1829.9686
88.0018 2027.1316
98.4930 1774.8207
99.9259 50397.5586
100.9337 15656.8989
101.9398 2327.1165
108.9920 5069.5476
114.9381 57008.7227
115.9211 29433.6904
116.0506 362824.8809
116.9281 21546.1885
129.0588 6493.6191
129.8854 1836.7075
129.9367 13421.4756
130.0659 9846.0605
142.0662 98248.2144
144.9234 7073.2048
156.9074 5719.9531
156.9554 12598.6074
157.0786 2583.0083
157.9318 9064.3835
158.8898 12680.0190
158.9249 23624.4072
159.0928 125165.5769
159.1240 3946.1985
159.8927 12384.5078
162.5852 2292.3362
174.8876 2159.5830
174.9186 65662.3223
175.9437 10866.4951
176.9344 11663.1211
184.9507 9912.5098
186.0560 25965.7695
192.9291 84691.0056
202.9140 10678.0796
202.9799 2154.6401
203.0828 561252.5410


Name: 13945 (DEOXYCYTIDINE MONOPHOSPHATE)
RT: 1.460000
PUBCHEM_COMPOUND_CID: 13945
Precursor_type: [M-H]-
PrecursorMZ: 306.0499
Comment: 1.46_306.0499m/z
Formula: C9H14N3O7P
Num Peaks: 50
55.0065 508.4373
62.7685 522.3504
67.0298 589.2579
70.4580 582.7527
74.5526 541.4668
78.9592 392671.0703
78.9701 3044.3441
81.7102 518.1216
96.9696 170334.4648
96.9834 3412.2432
99.9254 507.8099
100.3091 504.7935
110.0359 79960.8530
111.8899 536.5121
135.0315 890.7327
146.9602 4663.8258
147.9646 647.0276
150.9804 2269.4922
152.9375 719.5151
153.6699 533.4672
156.8969 626.4368
172.9784 647.8669
174.9565 15165.3416
175.9583 9268.3887
176.9952 53610.1177
187.2297 572.3060
193.9000 697.9020
193.9647 31009.7682
194.4120 507.5673
195.0066 179254.9717
200.9711 1737.4009
203.9664 523.2880
215.8252 2966.3065
215.8302 1362.7495
219.4712 616.3578
221.5114 549.0969
221.8107 600.2868
233.8981 2720.7866
237.8739 6075.9973
237.9537 11073.9985
245.0267 514.8910
246.9013 535.1030
249.8898 520.6643
261.8958 2480.6447
263.0431 20786.3125
277.8888 1976.3276
293.9109 791.3862
305.7862 5493.8548
305.9180 756.6732
306.0500 347698.2109


Name: 5960 (L-Aspartic acid)
RT: 0.630000
PUBCHEM_COMPOUND_CID: 5960
Precursor_type: [M-H]-
PrecursorMZ: 132.0303
Comment: 0.63_132.0303m/z
Formula: C4H7NO4
Num Peaks: 18
57.4450 1037.0255
63.9925 2297.0220
66.1562 1158.9740
71.0139 28339.2933
78.0294 1205.5670
87.5442 1260.5964
88.0404 247008.0286
88.0513 678.7399
97.3703 1261.3167
100.9342 5873.2834
105.2217 1186.2966
114.0194 15118.6919
115.0037 74405.5436
115.1471 1200.0859
115.9205 66998.6266
116.4509 1187.7030
127.4635 1156.3818
132.0303 125318.8008

Name: 586 (Creatine)
RT: 0.680000
PUBCHEM_COMPOUND_CID: 586
Precursor_type: [M-H]-
PrecursorMZ: 130.0622
Comment: 0.68_130.0622m/z
Formula: C4H9N3O2
Num Peaks: 16
53.3940 3394.7258
57.7539 3259.5405
61.9883 33068.0859
61.9946 5562.2222
81.6324 3149.3926
88.0409 21523.6133
98.3314 3422.8347
99.9259 28257.0293
100.7338 3768.9731
100.9336 10072.5352
104.0132 3703.2996
105.0180 3362.8062
113.9258 4501.7100
115.9207 15867.5293
116.9283 6726.5454
129.9366 4097.7456

Name: 1174 (Uracil)
RT: 0.990000
PUBCHEM_COMPOUND_CID: 1174
Precursor_type: [M-H]-
PrecursorMZ: 111.0200
Comment: 0.99_111.0200m/z
Formula: C4H4N2O2
Num Peaks: 6
66.9440 5927.2217
78.9594 3848.6174
79.9574 3715.5588
92.9647 11836.1416
110.9757 19576.5039
111.0206 36050.8828

Name: 6047 (L-DOPA)
RT: 1.120000
PUBCHEM_COMPOUND_CID: 6047
Precursor_type: [M-H]-
PrecursorMZ: 196.0616
Comment: 1.12_196.0616m/z
Formula: C9H11NO4
Num Peaks: 50
54.7480 2376.9451
59.0829 2191.0232
64.0824 2138.2388
72.0092 47836.9805
74.0247 17267.4019
75.0090 2605.1475
91.9201 2366.7417
91.9309 17523.4424
92.9290 27771.6416
93.9289 27001.4297
93.9452 2467.3857
94.9265 60796.1289
94.9457 14534.0063
96.9612 120518.3711
103.9312 7529.1453
104.9287 11370.6460
105.0181 2242.8198
105.9301 14903.6582
106.9267 25008.2734
107.0499 12140.6582
109.0294 49653.4395
112.9565 80104.3516
116.9277 7160.3479
121.0293 3323.3748
122.0373 82242.7227
122.9410 33716.6641
123.0451 27222.6455
124.9562 60655.2441
130.9927 21251.1167
134.0614 22672.2083
135.0452 332388.8374
137.0244 6728.0947
140.9513 229344.8125
142.9465 5566.8884
147.9201 9009.5850
149.9215 19078.0547
150.0556 17140.1060
150.9167 22825.2021
150.9809 9921.7930
151.9413 6363.2419
152.0713 17434.2324
152.8952 65193.9551
152.9510 102786.8477
168.9467 129045.9023
177.9013 10774.3792
179.0350 160874.6969
181.8981 3287.7920
183.9128 6018.7407
195.9062 8854.1741
196.0615 295876.7012

Name: 790 (Hypoxanthine)
RT: 1.250000
PUBCHEM_COMPOUND_CID: 790
Precursor_type: [M-H]-
PrecursorMZ: 135.0313
Comment: 1.25_135.0313m/z
Formula: C5H4N4O
Num Peaks: 20
54.6109 1633.7999
59.0133 3614.6272
65.0147 30433.6548
68.2998 1822.1426
72.9931 3100.9666
75.0085 83175.9922
75.5425 5334.1875
87.0085 35974.9961
89.0243 4898.1035
92.0253 1230254.5000
92.0394 1998.1925
99.9243 2393.7395
107.0359 7634.0405
117.0189 4092.2400
117.9198 3287.6926
131.8864 2131.3118
133.0159 20442.0781
134.8651 20336.4238
134.8944 74315.6484
135.0311 2603571.3850

Name: 1110 (Succinic acid)
RT: 1.500000
PUBCHEM_COMPOUND_CID: 1110
Precursor_type: [M-H]-
PrecursorMZ: 117.0193
Comment: 1.50_117.0193m/z
Formula: C4H6O4
Num Peaks: 16
73.0294 754590.9746
77.9421 10646.7686
79.8640 11299.4912
82.5765 9598.6055
86.5897 9055.8896
86.6104 9128.7930
87.2125 9519.2998
87.7909 8912.8369
94.4526 10689.4648
96.0430 11555.6973
99.0085 91910.5645
99.1170 9207.0791
99.9258 2672575.5098
112.0969 10182.1855
116.9286 25319931.6641
117.0187 207383.5313

Name: 6802 (Guanosine)
RT: 2.680000
PUBCHEM_COMPOUND_CID: 6802
Precursor_type: [M-H]-
PrecursorMZ: 282.0845
Comment: 2.68_282.0845m/z
Formula: C10H13N5O5
Num Peaks: 25
54.2023 2356.0840
56.0436 2297.6289
63.8267 2061.3728
64.1165 1729.6377
66.0004 2713.7178
67.1559 1855.7974
73.0309 2779.1106
80.4601 1732.3416
82.0408 4947.1274
107.0364 28362.5547
108.0202 46667.3011
126.0302 7312.2017
133.0156 222716.2007
150.0422 2750141.8517
152.9782 7540.6299
164.0593 5101.5825
171.8537 2521.2744
184.7280 1906.8320
191.9198 7981.8884
192.0512 5278.9912
234.0507 2107.3074
236.8836 1860.1405
253.8988 6898.0122
281.7953 2669.7834
282.0847 1049025.2578

Name: 6140 (L-Phenylalanine)
RT: 3.290000
PUBCHEM_COMPOUND_CID: 6140
Precursor_type: [M-H]-
PrecursorMZ: 164.0717
Comment: 3.29_164.0717m/z
Formula: C9H11NO2
Num Peaks: 20
72.0007 2935.8042
72.0091 43499.3914
89.9251 20294.7434
91.0549 5270.6650
96.9599 461700.0313
99.9251 1744.4788
103.0550 13902.6055
115.9209 8355.7393
116.9280 20248.5938
118.9255 5328.7268
119.9076 13417.2021
121.0298 2598.2637
123.2265 1840.1310
134.8945 13620.5703
136.9324 56649.5195
147.0451 206579.4126
162.4611 1889.6051
163.9864 3880.5935
164.0427 2069.2800
164.0716 171840.7178


Name: 6267 (L-Asparagine)
RT: 0.580000
PUBCHEM_COMPOUND_CID: 6267
Precursor_type: [M-H]-
PrecursorMZ: 131.0463
Comment: 0.58_131.0463m/z
Formula: C4H8N2O3
Num Peaks: 10
58.0298 21891.8457
70.0299 265125.3125
71.0138 18317.7617
72.0090 96189.1719
81.8335 17197.7773
95.0253 183511.4375
111.0190 24457.2500
113.0357 588773.6875
114.0196 790944.1875
131.0459 257148.8281

Name: 12647 (L-Homoserine)
RT: 0.610000
PUBCHEM_COMPOUND_CID: 12647
Precursor_type: [M-H]-
PrecursorMZ: 118.0510
Comment: 0.61_118.0510m/z
Formula: C4H9NO3
Num Peaks: 19
55.0186 25711.3262
70.0293 6480.1431
72.0091 13119.7900
72.0178 4740.6719
72.0455 100878.1250
72.9936 8032.8770
82.7302 5373.2119
88.0400 14722.9297
91.2348 5246.4961
98.0247 373087.0615
98.0361 7904.5127
99.0087 155210.3125
99.9260 9799.9912
100.0404 52430.2930
100.9258 96830.7217
111.5915 4543.3379
116.0351 54333.3555
117.9287 893890.3203
118.0509 707130.2500

Name: 1054 (Pyridoxine)
RT: 1.330000
PUBCHEM_COMPOUND_CID: 1054
Precursor_type: [M-H2O-H]-
PrecursorMZ: 150.0561
Comment: 1.33_169.0740n
Formula: C8H11NO3
Num Peaks: 25
61.9570 6545.5264
63.2909 4228.1147
75.0089 8857.3496
75.7775 3995.9734
75.9366 19323.4336
90.9235 273633.4375
90.9336 5010.1567
91.9314 364379.1021
93.9470 221266.8594
93.9612 7248.0371
94.9266 16315.0576
103.9314 195554.2305
105.9474 24655.3262
106.9931 5980.8145
107.9267 32622.1855
108.9340 4866.3032
109.9422 22184.8086
119.9262 187705.8906
121.0529 20429.3711
122.0610 123354.8047
122.9588 3982.3767
131.9379 8371.5137
135.0324 10821.3896
147.9209 37019.4688
150.0561 481877.7476

Name: 1054 (Pyridoxine)
RT: 1.330000
PUBCHEM_COMPOUND_CID: 1054
Precursor_type: [M-H]-
PrecursorMZ: 168.0667
Comment: 1.33_169.0740n
Formula: C8H11NO3
Num Peaks: 29
52.4767 1693.3816
60.4503 2202.4756
92.0502 6118.2939
94.9455 2024.2371
94.9815 5797.8521
95.5363 2788.8726
96.9614 17149.2358
99.9255 1956.8081
100.9852 2053.2690
107.0378 16613.2932
108.0453 81797.2705
110.0609 6535.2544
112.9558 11592.7656
120.0451 9619.2743
121.0532 53090.7588
122.0610 413284.2251
122.0818 2829.6904
124.9567 11180.4072
132.0455 2840.9077
135.0324 29396.4692
136.0402 7903.9058
138.0559 208511.1250
140.9505 25284.2129
148.0403 5762.6929
150.0561 1425162.3430
153.0432 3563.0764
166.0509 392608.6191
166.0762 5274.2726
168.0665 640362.5972

Name: 6057 (L-Tyrosine)
RT: 1.560000
PUBCHEM_COMPOUND_CID: 6057
Precursor_type: [M-H]-
PrecursorMZ: 180.0668
Comment: 1.56_180.0668m/z
Formula: C9H11NO3
Num Peaks: 32
72.0091 68379.2891
74.0250 5235.9790
87.9254 4091.7927
89.9255 5779.4727
90.9235 10281.9561
91.9318 10670.9316
92.9198 11160.8643
92.9938 88097.9141
93.0345 64246.0000
96.9594 4661.4507
99.9259 7140.6904
103.9411 9842.2725
106.0424 11411.8506
107.0503 4186.8833
112.9855 254134.3281
113.0042 8673.0361
116.9292 5564.7207
118.9286 4770.5234
119.0503 150151.0527
119.0664 3838.1794
135.9914 5848.7593
136.0766 9676.9219
136.9107 11634.6475
136.9836 340986.0938
137.0037 5990.4673
152.9183 47073.0703
152.9485 7206.4907
162.0553 5299.0840
163.0401 345577.3184
163.8901 5850.8335
179.8834 9595.5518
180.0666 633114.7871


Name: 444305 (L-(+)-Tartaric acid)
RT: 0.570000
PUBCHEM_COMPOUND_CID: 444305
Precursor_type: [M-H]-
PrecursorMZ: 149.0092
Comment: 0.57_149.0092m/z
Formula: C4H6O6
Num Peaks: 24
59.0138 1684.4094
61.7581 1796.5736
62.7143 1539.8196
67.3641 1840.9689
69.1996 1915.2052
72.9933 4584.3730
87.0088 11014.6904
90.9232 49360.5320
90.9332 4601.1119
91.9313 85970.3086
91.9446 2261.4771
92.9289 18030.5918
93.9473 41269.3994
103.0039 2097.7390
103.9311 49251.0039
107.9273 2483.3071
109.9422 5114.0847
119.9263 22395.3896
121.0278 2115.5576
125.0049 1653.9761
132.9333 5093.5129
147.9213 6550.2722
148.9001 7266.0408
149.0095 11441.0381

Name: 764 (Guanine)
RT: 0.950000
PUBCHEM_COMPOUND_CID: 764
Precursor_type: [M-H]-
PrecursorMZ: 150.0422
Comment: 0.95_150.0422m/z
Formula: C5H5N5O
Num Peaks: 24
66.0101 13410.4375
75.0084 12251.4375
75.9364 27647.8730
82.0411 19784.7813
90.0106 8623.3760
90.9236 346025.2480
91.9315 418233.9395
93.9471 271028.0000
93.9574 4715.3604
94.9262 22494.6621
103.9314 469619.1523
105.9468 30286.4648
106.9264 25751.8730
107.0362 116317.5625
107.9262 29796.7617
108.0202 237690.1250
109.9422 17236.3867
119.9262 262061.7188
126.0309 91606.3750
131.9373 18587.9043
133.0156 1682987.7695
133.0338 16715.3965
147.9215 78525.2813
150.0422 1455270.5039

Name: 6037 (Folic acid)
RT: 5.870000
PUBCHEM_COMPOUND_CID: 6037
Precursor_type: [M-H]-
PrecursorMZ: 440.1328
Comment: 5.87_440.1328m/z
Formula: C19H19N7O6
Num Peaks: 50
84.9958 1104.9335
92.0507 2464.3881
102.0563 1394.7822
119.0358 1415.2146
128.0358 21682.4614
132.0443 23292.8982
134.6485 1073.0635
135.0561 8274.4983
136.0406 5270.2979
137.6848 1050.6498
146.0466 7902.1239
146.9612 8687.5439
147.0555 1409.9706
162.0424 9144.2950
174.0428 6928.3536
174.9565 33019.6519
175.0503 87039.6504
175.0838 1058.5200
176.0572 9014.7914
177.1038 7974.2037
203.0824 5142.1050
218.7825 1354.4381
220.0881 2160.1621
221.0938 18267.6003
224.0947 1232.1801
240.5582 1193.8290
265.0845 5450.3773
267.0994 8559.8662
268.0835 2862.5247
268.0893 4382.6179
280.8618 1713.9059
293.0791 23977.7771
304.9143 22264.6831
310.0964 1240.5928
311.0902 149222.9453
311.1771 1083.7336
326.8580 2665.3755
334.1395 5270.3131
335.1234 5730.1658
352.1522 1081.0922
352.1592 1469.6420
353.1291 5549.8486
353.1399 9145.3508
378.1308 14851.6636
378.1364 2819.1333
396.1424 67597.3682
397.1267 2306.6580
422.1209 20196.1055
422.1296 4453.4917
440.1331 323089.0234


Name: 439498 (Cys-Gly)
RT: 0.550000
PUBCHEM_COMPOUND_CID: 439498
Precursor_type: [M-H]-
PrecursorMZ: 177.0340
Comment: 0.55_177.0340m/z
Formula: C5H10N2O3S
Num Peaks: 41
58.0297 96547.6875
63.6226 4659.1060
74.0247 227182.6875
85.0410 4600.1665
86.9389 7629.0840
87.0565 18069.0879
89.9259 12266.2764
90.0019 9570.5840
90.9337 43356.6982
92.9960 7211.3716
97.0407 13302.7617
97.3463 3875.8711
99.0564 226439.7949
99.9256 28871.8789
102.6357 4365.8320
105.9202 4814.5444
106.2961 4493.3477
106.9287 4350.0479
113.0357 5527.5332
115.9203 4141.8013
116.9283 10512.0737
118.9664 5709.4219
120.9635 7912.5107
125.0361 5400.7803
130.9266 4765.4517
130.9665 8535.0225
131.0461 73975.7188
132.9442 35650.4805
133.9420 102413.6016
136.8833 4540.0347
143.0462 638095.0332
146.9615 25825.7969
148.9628 81034.4595
158.9566 4302.4370
159.8864 8120.1328
160.0074 11561.3848
160.8874 10232.8301
176.8578 26644.0444
176.8969 21142.8789
176.9599 15355.6592
177.0337 209692.7471

Name: 2723790 (Thiourea)
RT: 0.700000
PUBCHEM_COMPOUND_CID: 2723790
Precursor_type: [M+FA-H]-
PrecursorMZ: 121.0078
Comment: 0.70_121.0078m/z
Formula: CH4N2S
Num Peaks: 11
51.4345 1502.5625
51.7607 1500.3280
69.6346 1590.5913
75.7788 1508.8923
80.9463 1515.3636
90.9239 3785.0714
91.9212 7933.3962
92.9296 1688.4047
101.9940 1660.0198
120.9302 5787.6113
120.9718 1662.1843

Name: 11096158 (N-Acetyl-D-mannosamine)
RT: 0.700000
PUBCHEM_COMPOUND_CID: 11096158
Precursor_type: [M-H]-
PrecursorMZ: 220.0828
Comment: 0.70_221.0901n
Formula: C8H15NO6
Num Peaks: 40
55.4882 1857.7106
58.0295 2227.2205
59.0137 164709.2031
59.9016 1841.0186
64.3156 1719.8660
68.6334 1761.1516
71.0137 26687.0859
75.4187 2014.5164
81.7086 1796.1464
82.0302 2240.8276
83.0140 5100.3447
89.0243 49341.6094
99.9258 49861.1880
100.0404 106791.2461
101.0244 94720.3535
116.9283 33600.8940
119.0348 76718.6172
136.1364 2149.5679
152.9799 4434.1633
156.9062 3243.1338
158.9238 16434.8730
159.8926 16984.1863
162.8929 4128.0161
163.8755 1832.6047
173.9216 15436.7983
174.8651 2123.0720
174.9180 99362.8906
175.8617 373094.9277
176.9334 6589.8787
190.8494 66249.9180
191.9317 14536.6821
192.8910 3995.0500
192.9290 98941.7246
201.9180 12910.6768
202.9132 76551.9277
208.8595 6296.9790
210.8835 5224.3818
219.8515 10233.9795
219.8937 2594.6426
219.9298 5929.7725

Name: 11096158 (N-Acetyl-D-mannosamine)
RT: 0.700000
PUBCHEM_COMPOUND_CID: 11096158
Precursor_type: [M+FA-H]-
PrecursorMZ: 266.0882
Comment: 0.70_221.0901n
Formula: C8H15NO6
Num Peaks: 50
54.2889 2041.3000
55.0185 7580.7402
58.0295 3389.1890
59.0137 335306.5547
61.9883 11310.1045
71.0139 53696.2227
72.9933 2193.3230
82.0299 3717.5757
83.0141 15813.1772
84.2273 2065.7192
89.0244 147031.5469
89.0373 4261.1743
98.9569 10253.6504
100.0405 211792.5781
100.0563 6894.7710
101.0244 339604.6484
114.2221 2254.4343
114.9505 7235.8286
116.9287 7987.9854
119.0349 572386.0000
119.0514 3666.7300
124.9369 2865.6863
126.9521 4496.7542
129.9761 6688.0767
140.0370 2437.5024
141.9496 2441.0842
142.0508 20521.9321
142.4263 2354.3342
142.9465 18958.5449
153.9529 2403.2590
154.8954 24428.2627
154.9461 20818.4512
160.0613 10148.0581
162.8941 3046.9683
169.9450 10980.0381
170.9409 31592.7402
175.8623 76815.1694
190.8492 6811.6995
197.9037 4363.5083
197.9412 13696.2949
198.8879 12109.1069
198.9369 60464.1328
219.8540 15971.8071
219.9049 17951.6372
220.0831 34597.8994
220.6183 2850.8511
220.8631 7115.4763
221.8269 9098.3706
237.9156 6629.5283
238.8278 2726.2407

Name: 2002 (N-Acetyl-DL-tryptophan)
RT: 7.310000
PUBCHEM_COMPOUND_CID: 2002
Precursor_type: [M-H]-
PrecursorMZ: 245.0933
Comment: 7.31_246.1005n
Formula: C13H14N2O3
Num Peaks: 50
58.0297 508158.4876
58.0354 14364.0951
59.0144 11131.5078
66.3999 9055.0163
70.0299 450406.1452
72.0092 40842.9870
72.0455 383440.9681
72.1393 10693.0703
74.0084 11099.3776
74.0248 3575015.9479
75.4282 10182.1829
84.0454 18148.8021
86.3589 1559.8757
98.0248 754515.1497
98.0366 10439.3867
100.9339 1845.3809
102.7516 8975.2559
114.9340 9182.1888
116.0351 1352583.7526
116.0509 722516.3887
129.0600 18741.7982
130.0663 118552.2839
130.9445 1735.9412
142.0665 171398.7218
146.9616 3049.7324
148.9616 4495.6768
153.9142 1977.8337
154.9133 6912.2316
154.9762 2683.5993
156.0806 15826.8659
157.0771 15664.8919
159.0925 245247.7134
160.0250 11784.7760
170.9722 1782.8833
174.9558 3665.9072
176.9592 21522.9915
180.9895 114434.5755
181.0250 2202.5203
183.0925 103367.7795
186.0570 85971.0872
198.8879 3728.6517
198.8943 11016.3034
198.9666 47453.9089
201.1034 580410.2246
203.0829 5292359.8073
203.1189 20398.8887
218.7284 21372.0143
218.7352 23084.8828
244.9876 3085.9440
245.0933 6872263.4531

Name: 2002 (N-Acetyl-DL-tryptophan)
RT: 7.310000
PUBCHEM_COMPOUND_CID: 2002
Precursor_type: [M+FA-H]-
PrecursorMZ: 291.0988
Comment: 7.31_246.1005n
Formula: C13H14N2O3
Num Peaks: 24
58.0296 9104.4199
70.0299 7619.8433
72.0459 6996.5625
74.0248 54766.6992
80.5602 3886.5603
98.0249 11936.2031
100.9340 18772.7012
115.9210 23904.2637
116.0352 30161.3242
116.0504 8410.7178
131.0377 6119.9849
144.9234 16146.8066
146.9612 5120.5718
159.0916 6088.9038
160.9767 6878.5420
174.9562 14178.3857
183.0900 3546.8870
186.9968 7393.6855
199.8517 4657.1973
201.1026 7188.4111
203.0828 111023.0547
217.7357 8284.3057
222.8996 6566.9302
245.0934 341079.7500


Name: 439260 ((-)-Norepinephrine)
RT: 0.650000
PUBCHEM_COMPOUND_CID: 439260
Precursor_type: [M-H]-
PrecursorMZ: 168.0667
Comment: 0.65_168.0667m/z
Formula: C8H11NO3
Num Peaks: 16
51.8409 10260.6240
93.0346 16091.9980
95.0497 26196.7969
96.9615 24131.0605
108.0208 13774.5986
110.6185 11627.2041
121.0287 12200.9277
122.0371 49525.5078
123.0452 5380078.9375
124.9556 12109.4863
134.0246 21734.7832
140.9496 27752.2070
149.0489 13627.0039
150.0560 7688966.4063
151.0874 26310.0195
168.0665 3102194.7031

Name: 439217 (D-Glucosamine 6-phosphate sodium salt)
RT: 0.830000
PUBCHEM_COMPOUND_CID: 439217
Precursor_type: [M-H]-
PrecursorMZ: 258.0384
Comment: 0.83_258.0384m/z
Formula: C6H14NO8P
Num Peaks: 50
78.9590 323776.2552
78.9699 1529.4504
96.9697 1062015.7188
99.9260 36399.9508
101.9524 850.2857
102.9486 44541.7656
103.9201 3909.2808
116.9297 18209.3752
117.9314 2096.0265
138.9801 53991.0254
144.6148 787.3068
145.9422 6936.9893
146.9396 69199.4889
146.9646 1168.4013
150.9316 791.1563
151.9475 914.2368
160.0601 1163.8018
162.8912 833.3949
165.9449 984.5274
167.8612 3708.4186
167.9173 802.9632
168.9901 7944.0977
169.8754 803.6486
169.9076 2455.5901
181.8981 8267.8389
182.0429 2197.9152
183.8571 4122.6801
183.9129 23007.5641
183.9501 1496.1622
189.8524 1697.9275
190.9290 23691.8102
199.0013 180578.3047
199.0441 5654.9177
199.8511 6114.0388
201.8670 4183.8879
203.9091 3741.5819
211.9505 7387.0060
212.6191 770.1070
213.8652 7728.1007
214.0018 1299.9063
215.8466 6345.6295
218.4818 1037.8791
219.4862 1014.5518
229.9621 2350.4972
239.9025 1059.8812
239.9757 1344.8196
240.0280 127543.2005
242.4435 814.6313
257.8501 1343.2103
258.0387 336923.4115


Name: 439283 (2,6-Diaminopimelic acid)
RT: 0.550000
PUBCHEM_COMPOUND_CID: 439283
Precursor_type: [M-H]-
PrecursorMZ: 189.0882
Comment: 0.55_189.0882m/z
Formula: C7H14N2O4
Num Peaks: 45
54.4888 1743.3955
61.9882 6071.0078
63.9694 4011.7192
67.0554 3993.3530
72.0092 61599.4678
72.0453 10137.9121
74.0247 16483.8965
80.0513 5261.6016
82.0660 9656.5273
97.0770 9874.9395
98.0609 5758.9526
98.9370 2820.9873
99.9255 2454.3284
100.9345 9181.0935
100.9533 125839.8135
101.0056 3533.5981
108.0449 7534.2095
109.0770 12382.5898
110.0612 13970.0850
111.0452 113500.9346
114.9066 15269.4395
115.9209 5537.2700
115.9401 4852.4238
116.9241 13209.0933
116.9474 11884.7939
125.0717 22404.0391
126.0559 83693.8501
127.0878 84368.8638
128.0718 680848.3652
132.9186 46198.2168
142.9829 2237.2737
144.8980 121162.3730
144.9216 40528.6328
144.9441 49921.1250
145.0984 54536.7114
160.8907 151234.4102
160.9197 6405.7065
161.9328 6104.1362
171.0776 305607.8496
172.0607 56179.7375
172.0867 4051.1807
188.8549 4225.1055
188.8886 3420.1157
189.0217 7984.3037
189.0883 1840030.6782

Name: 7427 (D-(+)-Trehalose dihydrate)
RT: 0.680000
PUBCHEM_COMPOUND_CID: 7427
Precursor_type: [M+FA-H]-
PrecursorMZ: 387.1148
Comment: 0.68_387.1148m/z
Formula: C12H22O11
Num Peaks: 33
52.7305 2798.5735
53.8585 1708.9404
55.8475 2906.8599
57.0345 3096.4021
59.0137 421289.6975
71.0139 298206.4487
73.0296 13340.2998
83.0139 11420.9678
85.0297 31052.1797
87.0087 26146.9766
89.0244 705761.2520
95.0137 17228.0488
96.9592 2019.2697
99.0087 3601.7444
101.0244 337193.5547
107.0353 9003.7051
107.6696 2194.6702
113.0244 232532.1572
115.0404 3591.0962
119.0349 381267.8706
125.0248 8421.8105
131.0350 52221.6165
134.1358 1898.2733
143.0349 90386.6458
149.0459 32749.8789
152.5090 1854.4294
161.0457 116505.6125
165.5555 2323.1206
179.0563 482564.4561
186.8728 1955.6281
340.9570 10691.6357
341.1096 2278695.5806
387.1154 93289.4360

Name: 92136 (DL-2-Aminoadipic acid)
RT: 0.710000
PUBCHEM_COMPOUND_CID: 92136
Precursor_type: [M-H]-
PrecursorMZ: 160.0616
Comment: 0.71_160.0616m/z
Formula: C6H11NO4
Num Peaks: 28
60.4236 2322.7485
61.9879 6377.3428
82.6812 1980.8564
87.1542 2402.8389
88.9924 2301.8171
94.8345 2008.7726
96.0455 126249.6357
98.0610 197004.1699
99.0457 6032.6270
99.9254 38673.3379
100.9347 2071.3486
114.0555 19887.9731
115.9391 6369.0288
116.0717 862872.3623
116.0865 19912.8752
116.9286 61588.4141
116.9460 9282.0913
131.9849 36791.7432
132.9176 3291.9656
141.9287 2228.1714
142.0510 883546.3838
142.0710 18156.9668
142.9250 16623.6265
143.0325 3780.3137
159.8938 397796.4453
159.9198 2122.9763
159.9399 4398.3979
160.0616 1258393.8711

Name: 778 (DL-Homocysteine)
RT: 0.760000
PUBCHEM_COMPOUND_CID: 778
Precursor_type: [M-H]-
PrecursorMZ: 134.0282
Comment: 0.76_134.0282m/z
Formula: C4H9NO2S
Num Peaks: 5
72.4527 3500.8994
75.0087 4156.5820
79.6538 3587.0730
85.1765 3210.7283
116.9212 12323.6641

Name: 439774 (3-Dehydroshikimic acid)
RT: 1.020000
PUBCHEM_COMPOUND_CID: 439774
Precursor_type: [M-H]-
PrecursorMZ: 171.0300
Comment: 1.02_171.0300m/z
Formula: C7H8O5
Num Peaks: 45
59.0138 13879.6289
65.0396 80426.2461
66.5219 1873.0664
67.0191 22407.0625
69.0347 73719.8228
70.2667 7894.0903
71.0140 111268.2305
71.0500 18097.6191
72.9933 13799.4438
75.0085 4701.5620
81.0345 290177.6270
83.0505 21105.8770
85.0293 17490.3848
90.9331 2237.6506
96.9412 69080.3516
97.0291 23984.0527
97.9304 2495.6965
98.9566 312354.9995
99.0450 64185.3975
99.9255 4640.8735
102.9562 4722.0405
108.0218 60124.0400
109.0295 1834716.4629
109.0424 1436.2668
111.0084 37548.1904
113.0244 15496.0947
113.9256 3077.6968
114.9352 5556.7075
114.9512 210420.4648
118.5214 8459.2354
124.9359 51288.1738
125.0255 14306.5713
126.8832 9529.4082
126.9525 182282.8047
127.0401 3397184.2969
127.0576 2980.1948
142.9466 423330.9053
142.9658 3312.6748
142.9741 2894.6890
143.0346 30219.0488
153.0192 10262.0010
153.9144 2901.7043
170.8889 8618.5205
170.9404 14747.6582
171.0298 874131.7461

Name: 13711 (2'-Deoxycytidine)
RT: 1.040000
PUBCHEM_COMPOUND_CID: 13711
Precursor_type: [M+FA-H]-
PrecursorMZ: 272.0888
Comment: 1.04_272.0888m/z
Formula: C9H13N3O4
Num Peaks: 16
51.1044 4064.6475
66.0353 3554.1135
93.0457 115841.5391
99.9262 6890.9878
135.0570 18335.4746
176.8986 12868.9053
183.0784 11345.9756
200.8832 4464.1631
203.9376 5660.1567
204.8937 34163.6250
204.9640 6205.3379
226.0833 258473.2314
226.9566 4945.2651
228.8778 3733.2139
253.8931 4944.3574
254.8846 3974.0972

Name: 2153 (Theophylline)
RT: 4.980000
PUBCHEM_COMPOUND_CID: 2153
Precursor_type: [M-H]-
PrecursorMZ: 179.0576
Comment: 4.98_179.0576m/z
Formula: C7H8N4O2
Num Peaks: 33
84.9907 47786.0938
90.9236 2756.1172
90.9982 50991.1016
92.9198 6712.2993
92.9937 82885.5859
99.9257 8300.8955
103.9410 6789.0774
110.9753 6238.8560
112.9855 163799.8125
113.0039 4672.5190
116.9280 8592.2266
122.0359 53534.3652
122.9589 13264.0264
123.0392 63472.2969
134.8753 7742.5620
134.9876 201917.3582
135.0081 4385.4761
135.9903 3939.3201
136.9836 364632.2500
140.0466 3075.8230
141.0487 8865.9316
148.8997 5981.0659
149.1945 3401.2488
150.9542 98225.2422
152.9177 16001.3027
159.2022 2882.6990
164.0347 96009.3242
165.0367 247567.2388
175.7978 2854.1157
178.8575 5135.5254
178.9082 14899.2393
178.9809 59084.8633
179.0571 664372.1284


Name: 439213 (D-(+)-Glucosamine)
RT: 0.550000
PUBCHEM_COMPOUND_CID: 439213
Precursor_type: [M+FA-H]-
PrecursorMZ: 224.0777
Comment: 0.55_224.0777m/z
Formula: C6H13NO5
Num Peaks: 24
59.0136 229555.4688
71.0141 25503.5176
72.0459 20386.3242
72.8144 12025.2148
82.0296 35384.7500
88.9889 15103.5391
89.0248 95629.8594
98.0248 523976.5938
99.0314 23438.6973
100.0404 669629.6250
100.0561 16021.1641
101.0245 152425.5781
110.9067 12189.7852
112.0404 94174.3828
119.0349 254477.8281
133.9426 36510.5547
142.0507 20542.7070
155.8936 24294.0156
160.0617 52729.7539
177.9026 23179.7461
177.9348 16494.2988
196.8668 47626.5195
198.8828 20267.7813
218.5035 18263.0957

Name: 123831 (N,N-DIMETHYL-ARGININE)
RT: 0.700000
PUBCHEM_COMPOUND_CID: 123831
Precursor_type: [M-H]-
PrecursorMZ: 201.1358
Comment: 0.70_201.1358m/z
Formula: C8H18N4O2
Num Peaks: 32
55.0299 609541.3696
85.0770 7457.0952
86.0725 44542.4453
88.9881 15228.0146
93.4884 6615.9629
98.9390 7676.9756
98.9567 13600.8154
99.9259 10416.5986
100.9534 99349.3047
110.9702 32980.2266
112.9392 12723.2510
113.0720 149389.4688
114.0560 199619.3994
114.9515 14253.8086
116.9487 80165.8203
126.1036 124078.5391
126.9336 24508.0879
127.1090 6561.0229
128.9482 41687.6680
131.0825 6310612.4844
131.1084 7556.3677
139.0513 5827.5400
142.9474 9907.7344
144.9436 189724.2500
156.8918 85078.2275
156.9434 87901.8877
170.0935 1597509.8672
172.8885 32041.6465
172.9389 131988.3438
200.8847 14746.3311
200.9349 18814.9512
201.1357 1114608.3242


Name: 751 (DL-Glyceraldehyde)
RT: 0.630000
PUBCHEM_COMPOUND_CID: 751
Precursor_type: [M+FA-H]-
PrecursorMZ: 135.0299
Comment: 0.63_135.0299m/z
Formula: C3H6O3
Num Peaks: 18
59.0138 10045.1216
62.2098 1830.5120
68.1055 1793.7819
71.0138 2331.9409
72.9930 5617.8704
73.5806 1676.0500
75.0088 94286.5703
83.3721 1789.1052
86.3394 1747.4877
87.0089 43092.8223
89.0242 10129.3159
113.2058 1678.0544
117.0192 7701.8030
122.8072 1627.9424
134.8431 3283.9258
134.8654 112904.7461
134.8941 29960.2510
135.0290 103903.5938

Name: 204 (Allantoin)
RT: 0.660000
PUBCHEM_COMPOUND_CID: 204
Precursor_type: [M-H]-
PrecursorMZ: 157.0368
Comment: 0.66_157.0368m/z
Formula: C4H6N4O3
Num Peaks: 11
50.9873 24006.6621
59.0248 36100.6602
71.0247 123494.7969
84.9907 24183.8242
88.9877 62443.5352
92.0136 36513.4063
97.0042 1996738.3750
114.0308 1734119.3750
140.0101 173899.3438
156.8946 220760.9375
157.0368 349241.9375

Name: 247 (Betaine)
RT: 0.660000
PUBCHEM_COMPOUND_CID: 247
Precursor_type: [M+FA-H]-
PrecursorMZ: 162.0773
Comment: 0.66_162.0773m/z
Formula: C5H11NO2
Num Peaks: 12
56.3158 3324.1252
61.9884 5891.5459
78.1909 4118.4731
91.4857 3611.5754
93.7641 3545.4653
96.9597 3224.1052
100.9263 7078.6250
115.9208 7766.3662
117.9287 8422.2891
118.9924 40242.0898
134.9141 6455.9766
161.8941 165714.0469

Name: 92283 (D-(+)-Glucuronic acid γ-lactone)
RT: 0.710000
PUBCHEM_COMPOUND_CID: 92283
Precursor_type: [M-H]-
PrecursorMZ: 175.0249
Comment: 0.71_175.0249m/z
Formula: C6H8O6
Num Peaks: 24
50.1418 18030.4414
51.3639 17427.3438
57.0343 80317.0625
59.0137 114679.1641
77.3962 17370.9180
83.0145 27844.9629
84.0211 27117.9238
85.0294 1323609.2520
86.9765 104783.6875
95.0138 329002.2305
99.9257 115401.4219
102.9713 232674.1719
103.0036 31559.2930
113.0243 1588816.2383
116.9287 52723.6406
118.9661 567302.6875
130.9438 52222.8203
130.9658 384078.0625
146.9611 5461843.7578
174.3883 19247.6484
174.8627 35660.0078
174.9233 43445.0234
174.9560 809597.7207
175.0228 35353.1094

Name: 1549098 (L-Cysteinesulfinic acid monohydrate)
RT: 0.840000
PUBCHEM_COMPOUND_CID: 1549098
Precursor_type: [M-H]-
PrecursorMZ: 152.0024
Comment: 0.84_152.0024m/z
Formula: C3H7NO4S
Num Peaks: 22
57.7276 644.7851
64.9460 8428.2910
64.9989 6688.5107
67.4389 672.7884
69.0925 718.2494
69.9638 709.4366
88.0264 895.9094
88.0403 453099.0721
88.0511 1524.1718
91.9300 783.2232
94.9271 869.2996
96.9257 1038.2939
96.9614 5791.5491
103.9209 6232.1727
107.9509 773.9796
108.9365 4376.7684
108.9886 45024.1555
109.2932 736.0720
112.9565 7408.8383
140.9504 5165.5532
148.0354 769.6412
152.0022 35776.6957

Name: 439406 (O-Succinyl-L-homoserine)
RT: 1.090000
PUBCHEM_COMPOUND_CID: 439406
Precursor_type: [M-H]-
PrecursorMZ: 218.0671
Comment: 1.09_218.0671m/z
Formula: C8H13NO6
Num Peaks: 37
53.1470 1967.7903
58.5519 1775.2931
65.3786 1754.8500
72.0451 2866.1484
73.0205 3923.1907
73.0295 102956.5313
82.0301 4555.5186
85.2500 1986.5480
88.0398 2267.0713
89.0248 1801.7438
90.9234 2039.9296
91.9309 9990.7246
98.0247 28582.9468
99.0088 22563.6304
99.9257 39815.3223
100.0404 13129.4951
103.9314 8448.8276
114.9509 2067.3379
116.9279 3396.0308
117.0194 582181.4063
118.0510 468777.4302
146.9630 2727.8215
147.9211 10332.4155
149.9365 6696.0784
156.0663 5423.4478
158.8919 1902.7379
159.8921 4955.3127
172.9226 5985.6460
173.8677 21097.6563
174.8640 84557.8477
174.9176 8802.4426
188.8590 2133.7327
189.8515 26560.2676
190.9355 2075.3293
192.9305 12439.7603
200.0564 19692.9475
200.9202 6446.4253

Name: 105024 (Seleno-DL-methionine)
RT: 1.350000
PUBCHEM_COMPOUND_CID: 105024
Precursor_type: [M-H]-
PrecursorMZ: 195.9884
Comment: 1.35_195.9884m/z
Formula: C5H11NO2Se
Num Peaks: 45
79.9168 7979.7954
81.0494 3784.9998
85.7186 3943.9414
90.9230 6485.5454
91.9200 5578.8384
91.9316 13082.1025
92.9290 26003.0449
93.9291 26271.7188
93.9458 6396.2515
94.9275 49608.3477
94.9403 716976.1882
96.9613 106520.6016
96.9753 5915.6382
103.9309 5213.5166
104.9286 7606.5273
105.9299 12036.7314
106.9266 28057.7637
109.0538 4092.5410
112.9563 85087.5156
121.9315 6054.4497
122.9397 20877.9004
124.9563 57425.7852
128.0357 7102.8242
130.9924 11754.9727
133.9356 4559.2241
134.9325 7138.9146
140.9513 203698.1719
140.9718 3841.6135
142.9467 8786.7100
147.9199 6142.8760
148.9198 5212.3315
149.9222 24252.7324
149.9834 5489.2188
150.9147 23370.6270
150.9790 5204.3496
151.9403 5306.0425
152.8952 54859.7969
152.9511 87184.4609
152.9794 4717.3545
168.9468 121014.3516
177.8994 14502.0186
181.8970 6227.1313
195.8689 5453.4980
195.9061 15430.7549
195.9883 8408.3594

Name: 9060 (Tryptophan)
RT: 4.420000
PUBCHEM_COMPOUND_CID: 9060
Precursor_type: [M-H]-
PrecursorMZ: 203.0827
Comment: 4.42_203.0827m/z
Formula: C11H12N2O2
Num Peaks: 36
69.3181 2213.4832
72.0091 72125.0645
74.0248 109121.4287
99.6276 1683.9387
99.9257 52710.6387
100.8714 1832.9747
100.9339 18555.7695
108.9911 2273.3386
113.9420 5467.8993
114.9380 63015.8262
115.9210 27917.6094
116.0507 323365.0332
116.9289 22869.0420
129.0598 2889.8862
129.9362 12415.1260
130.0667 8572.9951
132.0821 2180.5142
142.0664 90200.3462
144.9251 7023.2295
156.9077 2611.5942
156.9545 12643.2104
157.0773 3779.4146
157.9303 7112.0867
158.8910 18991.5620
158.9251 20065.9414
159.0929 119210.8535
174.8884 1857.7574
174.9184 63199.6289
175.9425 11664.4414
176.9336 8245.2786
184.9501 12725.8286
186.0560 19090.9727
192.9291 87742.8298
202.9124 5862.0957
202.9806 2326.9990
203.0828 511377.9414


Name: 11850 (GALACTITOL)
RT: 0.630000
PUBCHEM_COMPOUND_CID: 11850
Precursor_type: [M-H]-
PrecursorMZ: 181.0719
Comment: 0.63_182.0792n
Formula: C6H14O6
Num Peaks: 41
55.0187 70054.2500
57.0344 46867.3125
59.0137 931899.2500
61.9879 12312.0010
69.0348 19600.5078
71.0139 1213966.8750
73.0294 330442.4688
74.5364 14798.0078
83.0139 164681.2500
85.0293 341675.0625
87.0087 18912.1133
87.0453 12918.2734
89.0244 1396110.4121
91.0398 39253.5195
92.9197 180618.1719
92.9937 116417.2969
95.0141 22219.6641
97.0292 121463.2031
101.0244 3663840.7813
103.0412 15169.6826
112.9857 313328.1875
113.0242 260362.8438
115.0400 98036.4375
119.0350 588111.8125
121.0507 30119.9844
131.0351 174693.5313
136.8716 28658.6992
136.9097 135433.0625
136.9837 486273.0625
143.0349 34042.0156
145.0508 18946.0469
149.0454 101740.2422
152.8817 14249.9033
152.9182 59908.5518
161.0454 81543.8906
163.0611 901347.7656
163.0940 25238.2715
179.0555 22645.9355
180.9122 42398.7070
180.9755 156536.1406
181.0718 5778734.9219

Name: 11850 (GALACTITOL)
RT: 0.630000
PUBCHEM_COMPOUND_CID: 11850
Precursor_type: [M+FA-H]-
PrecursorMZ: 227.0774
Comment: 0.63_182.0792n
Formula: C6H14O6
Num Peaks: 45
57.0344 2794.3235
59.0137 44934.8945
61.9879 7332.9116
71.0048 3306.9871
71.0138 58354.3281
73.0296 14217.2881
75.0087 6858.2090
83.0138 7766.9844
85.0293 18166.2266
89.0244 87344.6719
93.3535 1854.9666
97.0290 7132.2974
99.6405 2455.5266
101.0243 229008.7314
101.0364 3820.8738
107.9267 3186.0693
111.4322 2349.5198
113.0245 16182.9443
114.9882 7116.3770
115.0401 5812.5894
119.0167 2512.2043
119.0351 43745.8281
129.2207 1726.0154
130.9845 14219.0225
131.0357 12915.3516
135.9184 3910.6357
143.0353 2668.3438
145.0523 2612.2336
149.0456 7199.1519
152.9180 34165.3750
153.9384 2202.4224
154.9450 5290.7017
158.8919 2983.9827
158.9788 27776.4795
161.0455 6254.9390
163.0610 75497.9766
165.9164 2433.9199
176.5747 2021.7611
180.9130 154385.8125
180.9924 2557.4365
181.0718 1600644.9766
181.1056 1947.5928
182.9159 2522.1641
184.8108 2312.8936
198.8658 8161.6135

Name: 94715 (GLUCURONATE)
RT: 0.660000
PUBCHEM_COMPOUND_CID: 94715
Precursor_type: [M-H]-
PrecursorMZ: 193.0355
Comment: 0.66_193.0355m/z
Formula: C6H10O7
Num Peaks: 50
59.0137 123624.3911
59.0204 3867.7854
61.9883 5022.8130
67.8173 2384.6719
71.0139 58454.3535
72.9931 141565.2734
73.0295 44915.3960
75.9367 11761.9719
83.0130 2703.1001
85.0295 91506.9067
86.9501 24852.9595
89.0245 42444.6123
89.9259 80131.6602
90.9233 105360.6152
90.9337 1770688.7607
93.9470 168647.3125
94.9921 9579.4673
95.0138 21968.6255
99.0077 3266.8262
101.0247 63762.7412
102.9336 1746224.6406
103.0034 55088.5376
103.9438 3460.1851
105.9206 44893.9346
105.9469 198549.4492
106.9280 27363.6172
107.9270 21622.1675
109.9423 18247.8860
113.0243 204025.6514
113.0430 4158.9736
119.9264 369302.1328
119.9467 14875.6301
129.0196 2605.7012
130.9395 187970.7568
131.0353 38939.1887
133.0143 20213.3418
146.9234 566667.2031
147.9214 862142.0938
147.9508 7425.0034
148.8989 50928.5225
149.9369 299492.0938
149.9628 4261.3491
157.0140 11127.2178
163.0250 3660.2688
164.8957 74393.2188
174.9180 32819.3037
175.0239 6063.6526
192.8906 11611.4729
192.9291 34603.3228
193.0361 61541.9937

Name: 439268 (2-Deoxy-D-glucose)
RT: 0.680000
PUBCHEM_COMPOUND_CID: 439268
Precursor_type: [M+FA-H]-
PrecursorMZ: 209.0668
Comment: 0.68_209.0668m/z
Formula: C6H12O5
Num Peaks: 22
57.0344 18937.5313
59.0136 51942.0391
61.9883 4953.0547
68.9983 4244.0181
71.0137 6332.3379
77.1500 3540.0295
78.9669 3399.4536
83.0134 5872.3750
84.0212 7215.9375
85.0295 567421.5195
87.9252 6626.7148
89.0243 18135.2324
89.9255 6403.0903
92.9291 5404.2808
101.0244 37646.6055
119.0348 37636.8555
119.9235 8665.3643
144.6004 3697.0327
162.9328 5316.8525
163.9140 9539.3525
164.8951 12224.3789
208.8252 5692.7554

Name: 439685 (OXOPROLINE)
RT: 1.330000
PUBCHEM_COMPOUND_CID: 439685
Precursor_type: [M-H]-
PrecursorMZ: 128.0354
Comment: 1.33_128.0354m/z
Formula: C5H7NO3
Num Peaks: 6
61.2486 3391.3618
64.5471 4328.4912
73.5461 3709.9358
84.9387 10871.7178
99.9258 23614.4121
128.0353 99368.3828

Name: 6723 (4-Pyridoxic acid)
RT: 2.710000
PUBCHEM_COMPOUND_CID: 6723
Precursor_type: [M-H]-
PrecursorMZ: 182.0460
Comment: 2.71_182.0460m/z
Formula: C8H9NO4
Num Peaks: 49
52.4748 713.3731
52.7018 463.4483
60.5420 1560.1665
77.8612 518.0873
81.9946 507.4570
88.3041 593.4637
88.6702 451.5722
92.0505 19113.1597
92.9938 2353.4667
93.9972 512.0125
94.0295 7731.2486
94.9178 1642.0308
96.1467 1357.5265
98.6866 836.3244
100.5031 2469.2871
101.8398 1428.3777
101.9661 1600.7770
104.9279 528.5311
105.9368 2151.7706
108.0455 468931.9910
108.0587 5414.9688
108.8997 8812.9482
110.0611 5679.3877
111.6851 490.5537
112.3187 1282.8921
112.7464 554.8521
112.9863 8904.1375
113.9883 9928.5280
114.9345 40296.0901
116.9288 1164.6060
120.0455 39047.4832
123.0326 12435.6673
124.8960 1130.2809
136.0407 10181.8268
136.8953 40399.3027
136.9843 8028.9535
137.9919 10169.5732
138.0561 2565415.1511
138.0767 21607.6575
138.9079 1621.3818
138.9515 1469.4048
145.4968 472.4287
152.0354 1327.2864
153.9505 724.2859
154.9155 585.7465
154.9475 21738.1140
161.9339 501.2985
181.9769 1167.5087
182.0461 1295729.5247


Name: 5810 (trans-4-Hydroxy-L-proline)
RT: 0.600000
PUBCHEM_COMPOUND_CID: 5810
Precursor_type: [M-H]-
PrecursorMZ: 130.0510
Comment: 0.60_130.0510m/z
Formula: C5H9NO3
Num Peaks: 16
61.9883 112864.4844
66.0347 15142.0195
68.0508 51668.9063
71.0138 57162.2031
73.0294 35594.9570
82.0298 17342.7676
82.3917 8771.9014
84.0455 87209.2578
86.0252 20430.3086
99.9256 14044.3477
112.0400 42471.1211
115.9202 9348.0703
128.0353 603898.8125
128.8712 14002.4531
129.8719 35221.0586
130.0510 1717510.3447

Name: 736715 (4-Imidazoleacrylic acid)
RT: 1.010000
PUBCHEM_COMPOUND_CID: 736715
Precursor_type: [M-H]-
PrecursorMZ: 137.0357
Comment: 1.01_137.0357m/z
Formula: C6H6N2O2
Num Peaks: 10
70.5583 3123.6465
82.7897 3154.1338
92.9201 3486.5391
92.9929 4426.5747
93.0352 9464.3955
93.0459 120136.8672
108.8996 32850.8516
136.8644 26126.5293
136.8918 31936.8906
137.0374 19369.2559

Name: 681 (DOPAMINE)
RT: 1.110000
PUBCHEM_COMPOUND_CID: 681
Precursor_type: [M-H]-
PrecursorMZ: 152.0718
Comment: 1.11_152.0718m/z
Formula: C8H11NO2
Num Peaks: 17
51.3679 1642.3383
64.9458 14651.7173
64.9988 10831.8521
94.9266 5744.9468
96.9264 4555.1353
96.9612 7795.9221
103.9199 3256.8406
108.9358 9486.4565
108.9886 81595.7617
112.9561 13383.0288
122.0374 328177.6211
122.0534 6284.5234
123.0450 34371.7314
124.0158 5832.5850
137.0242 14003.8711
140.9509 9077.8374
152.0718 1352017.5039

Name: 7405 (Pyroglutamic acid)
RT: 1.320000
PUBCHEM_COMPOUND_CID: 7405
Precursor_type: [M-H]-
PrecursorMZ: 128.0354
Comment: 1.32_128.0354m/z
Formula: C5H7NO3
Num Peaks: 7
53.5245 2081.1782
60.9621 1517.0098
66.9491 1890.4037
84.9385 8142.2244
99.9256 22208.9971
126.6014 1675.4973
128.0351 68103.4414

Name: 13712 (Deoxyuridine)
RT: 2.340000
PUBCHEM_COMPOUND_CID: 13712
Precursor_type: [M-H]-
PrecursorMZ: 227.0675
Comment: 2.34_228.0748n
Formula: C9H12N2O5
Num Peaks: 23
66.0350 15380.5957
75.0083 6463.1880
79.8838 3788.8743
92.0720 4792.2593
94.0298 143646.3281
94.0436 7846.1880
111.0200 14561.1455
112.0402 8222.9238
114.9885 6407.2349
117.9298 3745.4307
130.9840 15897.8643
136.0401 59879.9785
136.0784 4081.1372
152.9175 30202.6738
154.8794 3619.2078
158.8921 4203.2241
158.9788 28419.5996
180.9127 171577.0938
184.0616 419362.8066
198.8634 29046.6348
200.8797 6381.3369
226.8650 6672.7915
227.0676 207559.8467

Name: 13712 (Deoxyuridine)
RT: 2.340000
PUBCHEM_COMPOUND_CID: 13712
Precursor_type: [M+FA-H]-
PrecursorMZ: 273.0728
Comment: 2.34_228.0748n
Formula: C9H12N2O5
Num Peaks: 30
58.8087 1740.6256
61.0707 2024.1918
66.6996 1866.5021
90.1608 1784.4406
94.0298 12853.2373
99.9254 2193.1992
111.0194 7122.1055
116.9282 2022.4960
136.0406 14320.4163
136.0613 2160.1819
142.9465 2281.6096
157.8901 2040.5269
158.9610 4188.9873
170.3645 1740.4576
176.8966 23079.0176
184.0617 89375.1079
200.0237 5144.0181
200.8835 2952.0586
201.8804 6072.8389
204.8939 54634.4119
204.9649 12359.7534
227.0674 404320.4797
228.0202 17183.7266
228.8784 5081.5420
229.0045 3693.9978
244.8288 3032.7146
245.8691 14300.9697
254.8849 7235.2332
272.8430 9707.8940
273.0748 2481.5056

Name: 18189 (4-acetamidobutanoic acid)
RT: 2.440000
PUBCHEM_COMPOUND_CID: 18189
Precursor_type: [M-H]-
PrecursorMZ: 144.0667
Comment: 2.44_144.0667m/z
Formula: C6H11NO3
Num Peaks: 27
54.0347 3505.6650
56.9168 5329.8991
57.0497 1226.8418
58.0296 98159.4714
77.0360 6789.3724
80.9957 1888.3140
82.8399 6352.0872
83.7400 1542.4969
84.0453 17351.7148
85.0295 3537.2220
97.9319 1551.4378
98.0608 7161.7227
99.9258 15175.3320
100.0767 354982.8620
100.9335 364664.0208
100.9491 11716.1512
102.0559 522265.8268
102.0718 8870.9447
115.9206 400529.4531
116.9282 11350.9593
116.9459 4606.6810
126.0560 98544.8418
132.9230 1584.6732
138.4506 6464.1758
143.8969 7763.2570
143.9534 1770.4110
144.0665 318907.7096

Name: 161166 (Kynurenine)
RT: 2.980000
PUBCHEM_COMPOUND_CID: 161166
Precursor_type: [M-H]-
PrecursorMZ: 207.0776
Comment: 2.98_207.0776m/z
Formula: C10H12N2O3
Num Peaks: 34
72.0089 20601.3320
75.0027 7964.4980
81.8096 3918.0054
87.9252 31386.6680
88.9322 4038.6018
90.9336 11208.5479
99.9255 6841.5723
103.9200 39412.7461
104.9284 7636.0581
118.0662 23836.6074
118.8950 6229.2915
118.9928 117943.3203
123.9461 5180.6963
128.0507 54664.5313
130.2463 3980.8726
131.0369 20121.1875
133.9415 10486.9229
144.0455 195037.0942
146.0612 174116.9766
146.0827 5069.9253
160.9394 6538.3833
162.8930 20242.3555
162.9829 336085.0684
163.0080 5712.3418
172.0407 27070.5000
178.8953 15544.7549
179.9361 12175.6738
180.4225 3840.0659
180.9190 7046.7090
189.8523 8698.1973
190.0511 211827.0439
192.8663 7106.8984
206.8462 27782.8438
206.9726 125117.0234

Name: 27476 (1-METHYLADENOSINE)
RT: 3.830000
PUBCHEM_COMPOUND_CID: 27476
Precursor_type: [M+FA-H]-
PrecursorMZ: 326.1109
Comment: 3.83_326.1109m/z
Formula: C11H15N5O4
Num Peaks: 23
69.2731 3801.6309
83.8742 3747.5012
99.9269 8633.9268
102.9351 4813.8540
102.9489 20876.6660
108.9246 4646.6797
116.9281 8544.4170
145.9429 7211.2485
146.9387 29315.6191
146.9618 11543.8008
148.0642 17422.5566
148.9612 6055.8252
164.9014 3968.7419
168.9502 3821.3118
174.9561 25429.2070
176.9119 4127.2939
176.9579 11423.9688
178.9806 6811.3901
190.9288 13548.2422
196.9416 9557.3086
253.8628 6175.1396
257.8557 3667.7734
258.8550 3857.2461


Name: 1018 (PICOLINATE)
RT: 7.760000
PUBCHEM_COMPOUND_CID: 1018
Precursor_type: [M+FA-H]-
PrecursorMZ: 168.0303
Comment: 7.76_168.0303m/z
Formula: C6H5NO2
Num Peaks: 18
67.4282 1729.2238
79.9580 2297.1653
81.7383 1720.7238
86.7632 1622.3534
94.9804 11872.2549
96.9616 7063.8638
102.1761 1923.9675
112.2711 1796.2472
112.9555 4437.7826
115.9190 4622.0715
123.0083 12589.2815
124.9574 5275.9287
140.9261 8098.5989
140.9502 9007.6821
152.8554 1795.6779
153.0067 314509.9673
167.9984 4119.8994
168.0300 136065.6055


Name: 6322 (Arginine)
RT: 0.560000
PUBCHEM_COMPOUND_CID: 6322
Precursor_type: [M-H]-
PrecursorMZ: 173.1045
Comment: 0.56_173.1045m/z
Formula: C6H14N4O2
Num Peaks: 24
63.7825 9422.6758
75.0087 246547.3594
84.9570 17328.6426
85.9468 60794.6328
98.9371 79505.9688
99.9255 96731.4453
100.9332 44053.0781
100.9522 173504.4219
101.9396 12736.2588
105.0191 28222.6035
114.0561 78716.3984
115.9204 45028.7617
116.9285 82842.7734
116.9473 185970.7344
126.9322 21583.3633
128.9257 15855.0117
128.9474 281686.3438
129.9350 15490.0928
131.0826 6485724.9531
144.9423 205298.1406
154.9477 31837.5586
156.0778 329770.4688
172.9364 31085.1875
173.1044 1006639.2930

Name: 439258 (L-Cystathionine)
RT: 0.580000
PUBCHEM_COMPOUND_CID: 439258
Precursor_type: [M-H]-
PrecursorMZ: 221.0603
Comment: 0.58_221.0603m/z
Formula: C7H14N2O4S
Num Peaks: 31
86.0247 15177.3951
90.9334 2187.4260
99.9259 9251.3867
107.9269 2100.6021
108.9885 3116.5464
119.7858 2038.3285
120.0125 287795.3804
120.0286 5277.9458
130.9443 3396.5210
134.0281 437244.7798
149.9377 8610.2957
152.9198 2375.7703
152.9783 11929.9521
154.6153 1975.9974
156.9100 7539.3350
158.9233 33261.5928
160.8934 2241.3320
162.8928 7421.4490
174.9184 155642.9326
174.9529 7453.1550
176.8616 32343.1423
176.8972 3063.6941
176.9357 5067.8206
191.8480 7602.8083
192.8909 4233.2261
192.9293 158312.8091
202.9134 98723.7764
202.9553 3556.2971
210.8830 9720.4492
220.9245 113545.8970
221.0602 222792.2671

Name: 13804 (CITICOLINE)
RT: 0.710000
PUBCHEM_COMPOUND_CID: 13804
Precursor_type: [M+FA-H]-
PrecursorMZ: 533.1054
Comment: 0.71_533.1054m/z
Formula: C14H26N4O11P2
Num Peaks: 42
71.2740 1934.6171
72.0290 2013.1490
78.9591 70349.7217
78.9698 2310.5679
80.4056 1973.4238
96.9696 35117.2075
102.3631 1940.0497
103.1559 2184.5728
110.0359 31805.1602
110.9860 4497.5254
115.9480 2233.2241
119.6627 1883.0077
122.9850 25642.2412
138.9803 2397.4294
141.7497 2347.3899
150.9812 6345.0039
152.6831 2252.0796
154.5113 2115.4746
158.9262 6556.9023
174.9553 10174.2554
176.9088 1926.5005
184.9420 5066.1675
192.9277 2510.4517
192.9912 5929.8525
229.9999 7288.0010
231.6532 2315.6331
261.0316 4823.1440
272.9571 4196.3779
275.9946 2203.4800
304.0343 109897.1533
336.0605 14644.8794
383.9981 9808.5088
384.0035 2321.5984
393.1382 2178.2947
413.8375 2258.0332
416.0289 6564.7437
428.0270 285885.5732
429.0328 2940.8066
473.0876 10891.2207
487.1066 9074.8418
493.6885 2262.7563
497.5062 2052.5474

Name: 1662 (3-Hydroxy-3-methylglutaric acid)
RT: 2.220000
PUBCHEM_COMPOUND_CID: 1662
Precursor_type: [M-H]-
PrecursorMZ: 161.0456
Comment: 2.22_161.0456m/z
Formula: C6H10O5
Num Peaks: 45
51.5169 492.7950
55.2837 579.9728
55.7025 523.8642
57.0344 147430.3268
57.0398 2131.4095
57.5490 480.2037
57.5932 586.5221
59.0139 36701.6443
59.7050 570.5396
61.2668 476.2404
63.2881 568.0027
69.2861 566.8210
75.0081 480.1224
75.4368 534.2585
76.0162 542.0075
79.6390 505.6991
86.8706 504.0818
89.6100 509.6115
90.9333 557.9284
99.0450 319177.0921
99.0575 2817.6606
99.9257 144180.2491
99.9382 1957.6905
101.0087 1066.2675
101.0243 100355.5089
101.0367 1612.9943
104.9876 4850.4528
115.9211 10669.1749
116.2354 732.3225
116.9285 194164.0206
116.9483 3346.0134
116.9844 2978.2733
117.0560 2068.3225
118.9669 979.7586
124.0354 518.9847
132.1438 633.6977
132.9174 6824.9399
132.9813 39349.7701
142.9248 54715.7343
146.9601 4408.8813
160.8927 370679.3728
160.9364 72581.1196
160.9790 518.3780
161.0228 337.7026
161.0454 141655.6079


Name: 6131 (CYTIDINE MONOPHOSPHATE)
RT: 1.410000
PUBCHEM_COMPOUND_CID: 6131
Precursor_type: [M-H]-
PrecursorMZ: 322.0450
Comment: 1.41_322.0450m/z
Formula: C9H14N3O8P
Num Peaks: 50
67.5048 1461.8981
70.1684 1338.6248
78.9591 397960.7396
78.9676 5368.4819
90.9335 5823.3000
96.9696 225717.2708
99.9244 1494.1390
102.9335 34427.7070
103.9199 1620.6821
106.9283 34242.8822
107.7273 1572.4805
108.4761 1523.2471
110.0367 11103.9541
116.9464 2802.0068
118.9651 1650.2591
128.9469 4443.7599
130.9286 10807.4655
130.9650 1576.9196
134.9233 1480.7305
138.9803 28889.5488
141.9048 1864.1545
144.9416 10241.2943
146.9232 1505.4159
146.9343 1980.3649
146.9608 68267.8997
147.9216 7076.9129
149.8827 1413.8643
150.9802 14398.9355
156.6959 1381.9992
172.9377 23583.8464
174.9563 145386.9430
174.9839 2058.5277
181.0615 9722.0573
183.0677 1475.8208
186.9324 1995.9261
192.8987 3021.9255
192.9918 3688.6213
197.6988 1484.0949
204.8971 1995.7150
211.0016 21666.4746
220.8942 1620.6185
232.8932 23523.1100
236.8889 1308.2061
238.9033 1951.8916
255.8074 1544.8008
258.1236 1409.0785
277.8695 1795.2575
279.0394 13612.1090
306.7216 1445.6398
322.0449 337086.2500


Name: 6274 (HISTIDINE)
RT: 0.560000
PUBCHEM_COMPOUND_CID: 6274
Precursor_type: [M-H]-
PrecursorMZ: 154.0623
Comment: 0.56_154.0623m/z
Formula: C6H9N3O2
Num Peaks: 21
66.0348 8053.3350
67.0304 48853.1094
72.0091 152625.7969
74.0250 9292.9863
80.0378 62485.9688
81.0457 123535.4766
93.0457 932955.8750
96.9402 17194.7422
98.9565 38208.7852
108.0566 176417.6250
109.0406 113755.8516
110.0722 399573.3438
110.9840 40899.2969
113.9556 10962.0039
114.9513 54218.7305
118.0411 55002.0977
136.0514 291228.9063
137.0356 1085011.5254
142.9465 55354.7188
151.0386 11347.5273
154.0622 4411323.4023

Name: 69248 (trans-4-Hydroxy-L-proline)
RT: 0.600000
PUBCHEM_COMPOUND_CID: 69248
Precursor_type: [M-H]-
PrecursorMZ: 130.0510
Comment: 0.60_130.0510m/z
Formula: C5H9NO3
Num Peaks: 23
61.0411 1704.6897
61.9883 104147.6191
66.0347 24107.0684
68.0505 47767.7266
71.0140 57661.6406
73.0293 37113.8438
82.0294 17494.2070
84.0455 69428.4688
86.0249 21566.5996
96.4631 9318.2305
99.0082 11930.2168
99.9257 10703.5547
100.9337 2215.0491
112.0409 37953.5195
115.9204 4780.3555
116.9281 2468.6499
121.1461 1685.7129
128.0354 560085.3120
128.0579 18370.7051
128.8722 12335.7773
129.8708 23671.4316
129.9378 3066.9136
130.0510 1560675.9590

Name: 22880 (N-Methyl-D-aspartic acid)
RT: 0.660000
PUBCHEM_COMPOUND_CID: 22880
Precursor_type: [M-H]-
PrecursorMZ: 146.0460
Comment: 0.66_146.0460m/z
Formula: C5H9NO4
Num Peaks: 35
50.6721 963.2875
58.9591 10634.8633
59.0137 3483.1030
61.9882 193250.8994
61.9941 4202.8838
71.0138 59882.2496
72.3956 933.5016
73.7371 808.8206
84.1573 848.2039
86.0247 6660.9258
87.9251 11443.1167
89.9263 11838.3975
90.9335 61154.1074
90.9455 1710.6698
91.8804 902.3675
95.7725 1003.2163
99.9254 54297.3545
101.9335 15372.1829
102.0559 195256.6475
102.0720 5775.1984
102.9334 31978.4810
102.9486 54411.4609
103.8490 912.2443
105.9207 943.9153
115.0036 269222.5840
115.0226 2001.4963
115.9195 4480.2535
116.9222 23683.3768
118.9664 30733.0840
125.9220 1036.0663
128.0359 11817.5430
130.9400 5597.6605
132.2777 1017.2719
145.8973 1389.6993
146.0459 128254.5391

Name: 439377 (N-Methyl-L-glutamic acid)
RT: 0.660000
PUBCHEM_COMPOUND_CID: 439377
Precursor_type: [M-H2O-H]-
PrecursorMZ: 142.0510
Comment: 0.66_161.0688n
Formula: C6H11NO4
Num Peaks: 11
51.4805 3773.3872
52.0008 3543.1326
75.0087 35898.3555
95.4310 4110.0488
96.9405 5503.9961
98.9405 5613.7617
98.9563 29700.9297
113.9262 9312.0654
113.9542 3815.8303
114.9514 36649.7422
142.0511 67150.5391

Name: 439377 (N-Methyl-L-glutamic acid)
RT: 0.660000
PUBCHEM_COMPOUND_CID: 439377
Precursor_type: [M-H]-
PrecursorMZ: 160.0616
Comment: 0.66_161.0688n
Formula: C6H11NO4
Num Peaks: 25
56.7603 1703.2532
61.9882 3114.4294
85.0296 16446.8770
90.9322 1914.3008
98.0613 28787.3691
99.9257 40928.1396
101.0250 14530.9297
103.6130 1726.2201
103.9897 2017.3580
114.0557 22579.9805
115.9221 2798.5332
115.9392 5593.1377
116.0718 1318514.0605
116.9282 56227.2031
116.9466 6791.6055
131.6742 8288.6211
131.9851 18587.1763
132.9172 2431.0417
141.9268 1890.5979
142.0511 2093469.1711
142.9252 5682.4194
149.3904 1929.0034
159.8938 444657.0938
160.0161 2420.1689
160.0616 783632.7852

Name: 17106 (Fucose)
RT: 0.760000
PUBCHEM_COMPOUND_CID: 17106
Precursor_type: [M+FA-H]-
PrecursorMZ: 209.0668
Comment: 0.76_209.0668m/z
Formula: C6H12O5
Num Peaks: 35
53.4887 1632.6969
55.5709 1725.7158
57.5146 1707.2175
59.0137 65008.3528
63.1626 2029.8383
71.0140 30412.4917
73.0296 4418.0313
74.1244 1802.2668
79.0503 1640.8429
85.0294 3105.7671
87.9260 7603.8604
89.0243 56811.0898
89.9255 5319.0085
92.9298 5217.9805
101.0244 10134.8232
103.0403 6703.4868
107.9320 1964.3607
118.8132 1658.9803
119.0357 4033.4353
119.9239 6644.3406
125.9414 1940.9556
127.0388 3707.7690
129.9013 1584.3384
134.9391 2084.5068
145.0509 3590.7683
162.9325 2664.9001
163.0619 5030.4165
163.9138 3131.3767
164.8957 11046.6138
164.9232 2208.4385
164.9864 2395.4043
166.5108 2375.1038
174.5132 1938.3949
180.9662 5133.5125
208.8251 8628.5552

Name: 10010 (Homocystine)
RT: 0.760000
PUBCHEM_COMPOUND_CID: 10010
Precursor_type: [M-H]-
PrecursorMZ: 267.0479
Comment: 0.76_267.0479m/z
Formula: C8H16N2O4S2
Num Peaks: 40
52.7117 1724.2255
70.9960 12348.7871
72.0091 104933.2754
88.0225 28981.5972
88.1715 1749.0768
88.5865 1982.2600
96.9263 2641.5015
96.9410 2468.5713
98.9572 26341.1709
110.9422 4394.4929
114.9521 20032.8047
114.9859 86481.6406
115.0009 1047.3267
121.7205 2057.0088
124.9366 13833.3789
126.9522 13262.7383
132.0124 167688.0938
134.0280 94974.9766
142.9468 54518.3535
152.9155 5966.1582
154.8956 55256.0586
154.9470 54987.4922
155.8935 58539.8535
155.9408 1959.7509
166.0014 3416.3489
169.8821 2979.0234
170.9415 86660.6680
176.8615 11841.9429
191.8466 2242.3208
198.8871 22725.9258
198.9364 155409.5334
199.8828 21841.8945
203.5600 2037.7190
210.8814 8437.3076
220.8637 13557.5625
223.8789 3343.8308
257.3335 1990.4684
266.8556 2082.9395
266.8616 3445.1897
267.0471 27439.6416

Name: 638678 (THYROTROPIN RELEASING HORMONE)
RT: 2.370000
PUBCHEM_COMPOUND_CID: 638678
Precursor_type: [M-H]-
PrecursorMZ: 361.1634
Comment: 2.37_362.1707n
Formula: C16H22N6O4
Num Peaks: 50
58.0297 21924.0825
67.0300 37017.8682
82.0303 8618.0784
84.0086 2253.5398
93.0462 6069.5552
96.0093 5224.8203
100.9338 5311.2717
108.0566 94838.2441
108.0735 4042.0972
109.0414 2493.1853
113.0720 24731.4253
115.9198 2493.7036
121.0394 2539.0540
123.0558 5731.0249
124.0390 26706.1064
127.0509 37252.1230
132.0567 116930.0134
135.0566 18028.0537
139.0510 3196.9180
141.0668 2288.9258
144.0581 2658.8308
144.9237 2277.0859
153.0670 9172.1196
160.0883 11633.8608
167.0461 193541.4614
167.0797 4672.0386
176.0816 2899.0195
179.0469 27198.4922
189.1145 14610.7070
190.0966 3377.2244
196.8656 9188.5068
201.0763 6498.6003
203.0940 578947.0752
218.6279 4061.4353
219.0881 17899.4810
224.8606 25051.9760
233.1058 28940.7568
238.1149 2735.5461
241.8139 2349.6753
246.0976 2854.4956
247.0839 240372.0962
247.1336 3059.4983
263.1154 88896.2317
264.1074 9207.8691
265.0931 2294.0869
293.7926 5354.3303
318.1503 4129.9663
318.1577 2398.2820
343.1508 39704.0674
361.1638 149379.6809

Name: 638678 (THYROTROPIN RELEASING HORMONE)
RT: 2.370000
PUBCHEM_COMPOUND_CID: 638678
Precursor_type: [M+FA-H]-
PrecursorMZ: 407.1690
Comment: 2.37_362.1707n
Formula: C16H22N6O4
Num Peaks: 18
77.4611 3766.3218
102.9489 10849.9346
108.0565 9384.9463
127.0507 5678.4238
132.0570 16404.0000
146.9391 13350.8975
155.2396 3846.8647
167.0460 21347.6348
190.9286 8627.5488
202.9146 8508.4482
203.0937 67737.8281
204.0999 4749.4404
247.0847 41794.8945
263.1178 9148.5166
300.5758 4003.8367
338.8844 4297.3843
343.1516 6587.1172
361.1636 82648.7832

Name: 64959 (XANTHOSINE)
RT: 3.230000
PUBCHEM_COMPOUND_CID: 64959
Precursor_type: [M-H]-
PrecursorMZ: 283.0685
Comment: 3.23_283.0685m/z
Formula: C10H12N4O6
Num Peaks: 18
61.5017 2359.8022
65.5514 2164.2100
67.1631 1833.8207
71.9218 1636.6324
73.1566 1915.9286
74.4349 1733.1271
87.3968 2311.5020
108.0203 28653.3711
108.9878 3538.7417
129.8437 2453.6064
142.9463 2096.6968
146.9613 2566.2703
151.0262 2143052.9648
151.0559 2678.9744
152.9785 21672.8760
165.0412 3132.1758
254.8866 7316.8296
283.0683 678604.1797


Name: 756 (GLYCOLALDEHYDE)
RT: 0.190000
PUBCHEM_COMPOUND_CID: 756
Precursor_type: [M+FA-H]-
PrecursorMZ: 105.0193
Comment: 0.19_105.0193m/z
Formula: C2H4O2
Num Peaks: 47
51.8159 204.8400
52.6518 339.3741
53.1350 206.1547
53.3983 221.1632
55.1752 226.6423
56.3894 211.7664
56.9983 4318.3503
57.1035 550.4576
58.6059 432.7474
59.0137 39144.8099
59.0205 802.4284
59.3540 238.6563
62.8457 329.2687
66.7462 612.9549
68.1473 225.7429
68.2346 280.2639
69.8334 374.4745
69.8647 400.7586
72.0096 236.3323
72.9932 84458.2384
73.0027 2535.7746
73.9963 2253.2529
74.5498 243.0470
75.0084 101676.1548
75.0165 1517.3831
76.0124 3340.1265
77.7019 388.2175
78.1256 599.0413
78.6922 351.8157
85.6869 199.9967
87.9253 1061.6770
88.0337 210.6368
88.0600 213.8246
89.1983 265.8972
89.9259 8155.9094
90.9235 370.1280
91.9209 18297.3457
92.9298 3039.9454
93.3297 227.6744
93.9187 585.1807
94.1070 230.7975
96.6977 200.1690
100.2630 221.0617
103.0033 1307.2552
103.9198 2358.1315
104.9282 4941.1483
105.0193 412245.7348

Name: 5958 (GLUCOSE 6-PHOSPHATE)
RT: 0.650000
PUBCHEM_COMPOUND_CID: 5958
Precursor_type: [M-H2O-H]-
PrecursorMZ: 241.0120
Comment: 0.65_241.0120m/z
Formula: C6H13O9P
Num Peaks: 50
58.0298 4838.7593
61.9884 3087.7783
70.0300 3348.4716
75.0090 3537.2384
78.9591 331350.8633
78.9702 5010.3938
96.0091 5008.2866
96.9561 948.1418
96.9697 205296.6670
96.9844 3054.9657
103.9203 12324.4527
111.0563 2594.8511
113.0369 1306.7216
114.0196 9101.1196
116.9299 1227.0099
120.9698 108314.8315
128.9469 1459.5491
129.0643 1478.3890
131.0470 5551.4050
138.9803 7485.2588
144.9444 5043.2399
149.9133 18573.2230
150.8894 2074.8766
150.9155 94466.5735
150.9795 1315.6212
152.9676 11324.3085
155.0464 56178.9528
155.0688 900.2094
160.8937 1661.3738
162.8928 3883.0626
162.9798 1298.3621
166.9097 914.0687
168.9262 14470.1541
168.9595 5421.3483
172.9383 24790.4326
173.0568 114852.2598
180.9905 1396.5463
184.9148 5129.0779
194.9071 52911.3604
195.8620 987.7307
195.9059 9444.2129
196.8678 11378.6324
196.9183 1211.9042
196.9576 16756.6421
212.9202 28810.7903
213.9166 8848.8574
222.8603 9197.0807
223.0013 5393.6181
240.8715 115470.3521
241.0121 1481131.2571

Name: 99715 (N-ACETYLASPARAGINE)
RT: 0.820000
PUBCHEM_COMPOUND_CID: 99715
Precursor_type: [M-H2O-H]-
PrecursorMZ: 155.0463
Comment: 0.82_174.0642n
Formula: C6H10N2O4
Num Peaks: 23
58.0296 199018.0469
60.1928 3954.4175
66.9438 5845.8086
66.9948 7276.0830
70.0295 5414.1011
70.7856 4572.5469
71.0249 35692.5078
84.0456 109581.1563
87.0086 12580.0244
96.0091 714302.1621
96.9407 27189.0059
96.9601 74495.8516
98.9569 96020.0420
110.9844 74055.3047
111.0567 38226.3789
112.0404 42504.4961
113.0356 323055.4990
114.9517 168224.6807
126.9519 4502.6284
132.4870 4366.8862
142.9465 148243.9424
154.8958 80070.0859
155.0464 1372528.2578

Name: 99715 (N-ACETYLASPARAGINE)
RT: 0.820000
PUBCHEM_COMPOUND_CID: 99715
Precursor_type: [M-H]-
PrecursorMZ: 173.0569
Comment: 0.82_174.0642n
Formula: C6H10N2O4
Num Peaks: 50
56.5484 8384.8564
58.0297 731074.8972
59.0329 19698.0605
70.0299 340772.8635
71.0332 14977.7500
74.5515 9129.2490
75.0089 125815.3357
80.9324 8355.2461
84.0456 37214.0325
85.9467 101001.2109
87.0565 118450.0630
96.0092 427951.6577
96.9934 18757.9873
97.0126 22328.3293
98.9369 46674.2910
99.9259 299666.0078
100.9335 141527.1393
100.9524 119325.1805
101.9413 32938.2134
102.9714 12075.6885
105.0196 18143.0168
111.0564 213544.6589
112.0406 33677.3086
112.0598 15564.3506
113.0357 174049.7021
114.0196 752751.6055
114.0382 10916.3516
115.0231 46943.7302
115.9206 184149.2266
116.9284 294898.6104
116.9472 173075.1714
118.9662 165909.4063
123.6338 9931.9961
128.9475 212926.3280
129.0668 100368.0353
129.9337 54579.5566
130.0702 9084.4346
130.9438 11466.2139
130.9663 10591.7500
131.0462 441098.6498
132.0493 31445.9338
144.9425 167234.2844
146.9612 1357885.0000
147.9472 9479.0297
155.0465 2912988.1470
156.0494 302588.2637
164.5442 8566.0537
172.8874 9237.1431
172.9381 26318.2788
173.0569 960959.5195


Name: 72886 (CYSTEATE)
RT: 0.600000
PUBCHEM_COMPOUND_CID: 72886
Precursor_type: [M-H]-
PrecursorMZ: 167.9973
Comment: 0.60_167.9973m/z
Formula: C3H7NO5S
Num Peaks: 16
53.5316 1608.7935
71.0138 54729.0225
73.1234 1847.0664
74.2673 1616.8199
80.9651 136180.5703
86.0247 29034.9653
96.9614 14160.2637
112.6390 1721.0237
112.9563 5688.2178
112.9844 1926.0070
124.9567 5571.7424
140.9507 16735.7251
144.5290 1823.7115
150.9707 96085.1191
150.9995 2559.1904
167.9973 328725.5629

Name: 10972 (N-Acetylglycine)
RT: 0.960000
PUBCHEM_COMPOUND_CID: 10972
Precursor_type: [M-H]-
PrecursorMZ: 116.0353
Comment: 0.96_116.0353m/z
Formula: C4H7NO3
Num Peaks: 6
63.6102 2179.1677
72.0453 8395.7881
74.0247 77806.4043
99.9258 438426.7656
115.9207 604441.7656
116.0347 10686.6660

Name: 65065 (N-ACETYLASPARTATE)
RT: 1.190000
PUBCHEM_COMPOUND_CID: 65065
Precursor_type: [M-H]-
PrecursorMZ: 174.0409
Comment: 1.19_174.0409m/z
Formula: C6H9NO5
Num Peaks: 50
58.0297 85063.4727
59.0137 65904.0717
63.1118 828.8849
70.0300 3452.0947
71.0139 18474.9057
75.0081 1410.9624
83.9312 2765.3033
84.9389 1307.8523
85.9465 61114.4754
86.6800 807.8122
86.9763 10338.7680
88.0404 436624.1629
88.0510 1443.5262
96.9930 16808.0957
97.9307 4939.7926
99.9258 397360.1875
99.9374 2377.6445
100.9342 107513.5290
101.9406 12558.6434
101.9536 4128.9226
102.9487 1618.2983
102.9716 41900.7854
112.0403 32605.4037
114.0197 122934.4943
114.0379 1419.9150
115.0034 84468.8689
115.9206 195772.3527
115.9394 2846.6168
116.9288 297187.4042
116.9461 10456.2150
117.9471 15222.9237
118.9485 2069.5381
118.9662 394325.8125
118.9821 3653.9613
129.9353 24794.5745
129.9510 5108.2210
130.0511 171798.0965
130.9434 30545.1275
130.9661 36517.1716
132.0289 8109.5277
143.8986 982.2268
144.9426 1173.4978
145.9421 16922.8354
146.9612 2904897.3571
147.0162 2864.6861
147.9470 5769.3435
148.9638 4033.5638
156.0296 41230.8651
160.9768 5303.1436
174.0409 235197.5234


Name: 10690 (GLUCONATE)
RT: 0.650000
PUBCHEM_COMPOUND_CID: 10690
Precursor_type: [M-H]-
PrecursorMZ: 195.0511
Comment: 1.69_195.0511m/z
Formula: C6H12O7
Num Peaks: 50
57.0347 6686.9104
59.0140 21364.5559
71.0140 15781.6873
72.9937 1108.7840
75.0089 167862.7219
75.0181 2044.4930
75.3917 1155.9859
85.0299 14621.1400
87.0089 39660.1047
88.9456 13732.5260
88.9885 10380.8980
89.0244 10125.8354
90.9229 13970.3389
90.9344 22003.9078
91.9211 39539.3227
91.9319 68161.5297
92.9291 850517.5867
93.9474 24386.9270
96.9605 16002.3758
99.0090 59265.6625
102.9347 11164.6441
103.9319 47929.6469
104.9290 552502.6385
104.9463 1910.7531
105.9476 9616.7498
107.9165 24484.1160
108.9241 22151.3953
119.9264 26467.3327
129.0195 171860.1156
129.0411 1988.9904
130.9927 87013.7703
132.9354 91946.7681
132.9569 1368.9559
141.0198 1257.1599
146.1541 1086.8109
146.9241 1301.4130
147.9217 28678.5078
148.9194 378073.5963
150.9408 19429.7085
159.0295 15118.2875
161.2326 1095.8085
162.8943 1558.8958
176.8920 48094.4738
177.0405 24767.1813
177.8975 7053.0108
181.8984 1240.5765
183.9106 1234.8437
194.9050 107188.3174
195.0072 1803.1131
195.0514 442234.5945


Name: 725 (DEOXYCARNITINE)
RT: 0.700000
PUBCHEM_COMPOUND_CID: 725
Precursor_type: [M+FA-H]-
PrecursorMZ: 190.1087
Comment: 0.70_190.1087m/z
Formula: C7H15NO2
Num Peaks: 32
56.9431 7643.9521
58.9588 89180.6250
58.9651 3223.7239
61.9880 2105.3352
85.0299 2477.7031
87.9255 50180.2520
90.9340 7285.0137
99.9257 22422.0068
100.9336 69591.0117
100.9480 3575.4846
101.9393 2710.3442
101.9522 48932.3105
102.9488 1514717.4375
103.9209 10612.9434
105.9364 2403.6021
115.9207 51163.9990
117.9471 2146.3584
118.9202 3229.1138
130.0881 7522.5303
133.9188 6182.3718
134.9153 18016.1260
143.9341 8478.5171
144.9225 8105.3704
145.8990 69163.8750
145.9404 29678.5195
146.8996 155887.6250
146.9389 609047.6563
156.2671 1950.0724
161.8936 93114.3203
162.8926 209006.4297
189.8535 38943.5093
189.8906 10888.8760

Name: 135437 (PHOSPHORYLCHOLINE)
RT: 0.730000
PUBCHEM_COMPOUND_CID: 135437
Precursor_type: [M+FA-H]-
PrecursorMZ: 228.0644
Comment: 0.73_228.0644m/z
Formula: C5H14NO4P
Num Peaks: 45
50.7039 849.7070
53.6343 936.2083
56.3765 857.1183
61.8520 851.7511
61.9883 3002.7664
70.3435 892.4674
74.3006 819.7910
74.6374 852.3860
76.1400 1082.0219
76.6818 955.8920
77.9528 967.3557
78.0917 818.9302
78.9591 155831.9551
78.9702 3079.6274
83.0966 821.6424
88.1282 973.7780
96.9699 6315.7294
99.9252 2457.0117
107.9264 4011.4070
111.8580 909.7197
116.9284 2876.7025
122.9857 17196.7620
128.5085 892.1465
129.9393 2643.2473
138.9642 943.0907
153.9383 3566.2786
156.7986 1129.4091
158.9529 970.8864
159.8924 9480.3181
159.9806 1286.3619
160.8921 3269.7964
168.0432 285715.0289
168.0720 2745.1171
169.9104 7464.7454
171.9514 2080.1381
182.9152 7208.4362
182.9539 14587.4646
183.9176 4661.7352
190.5244 1000.6373
200.8802 1095.6548
203.6359 953.9119
210.9502 4735.3772
219.5629 884.5122
227.3599 988.6340
228.0628 6072.7241


Name: 101812 (ADENOSINE 2',3'-CYCLIC PHOSPHATE)
RT: 1.660000
PUBCHEM_COMPOUND_CID: 101812
Precursor_type: [M-H]-
PrecursorMZ: 328.0456
Comment: 1.66_328.0456m/z
Formula: C10H12N5O6P
Num Peaks: 32
90.9334 60792.9414
98.9562 8344.9307
102.9337 64502.5664
112.4363 4313.2446
112.9859 12468.8584
114.9512 4524.6401
124.9367 5600.7759
126.9509 7903.0806
130.9389 7743.9766
134.0473 300262.9668
134.0662 7378.7734
142.9473 20575.9746
146.9232 151620.6743
146.9617 9661.2383
148.9394 13599.6416
150.9538 6671.3779
154.9461 28998.4238
169.9457 4285.4517
170.9420 44614.8398
174.9556 43151.6875
178.9482 10737.5801
178.9796 8691.6338
191.9092 4665.1367
192.9291 76029.9688
197.9401 12927.7324
198.9366 110431.7891
218.8609 6118.0552
255.8769 7322.9468
260.9148 6052.9897
272.8571 15855.5654
299.8667 22190.9644
328.0485 19208.3633


Name: 668 (DIHYDROXYACETONE PHOSPHATE)
RT: 0.470000
PUBCHEM_COMPOUND_CID: 668
Precursor_type: [M+Cl]-
PrecursorMZ: 204.9667
Comment: 0.47_204.9667m/z
Formula: C3H7O6P
Num Peaks: 21
65.9248 3417.1677
75.0088 113466.2422
75.0181 8092.3726
99.9255 3613.0508
100.8499 3353.4111
102.9335 4334.3491
106.9292 3912.7620
112.3505 4057.8853
114.9514 5801.3589
130.9447 9004.1904
130.9659 58326.3320
144.3095 3779.6736
146.9621 9738.9893
148.9774 10036.9150
158.9612 285192.2500
160.8922 45777.4658
176.8974 166463.4824
176.9720 96723.9063
194.9263 7031.5840
204.8935 45135.0430
204.9667 65694.9688

Name: 440120 (N,N,N-TRIMETHYLLYSINE)
RT: 0.550000
PUBCHEM_COMPOUND_CID: 440120
Precursor_type: [M+FA-H]-
PrecursorMZ: 233.1508
Comment: 0.55_233.1508m/z
Formula: C9H20N2O2
Num Peaks: 23
66.5511 6944.0049
73.8557 7211.7803
96.9601 58907.0430
97.0118 174840.7500
97.0254 13415.1699
102.9342 13222.6709
105.0191 28678.6797
106.9282 13167.8145
112.9856 132939.5000
113.0019 13996.2842
128.0719 48000.7578
135.0316 9296.6865
136.9321 9384.1699
164.9244 15768.0713
164.9523 10854.8242
164.9981 11927.4170
173.1295 287985.5313
173.1643 13449.2275
186.9304 29093.2383
188.9406 15463.2334
218.8540 8047.0908
229.2138 7089.6694
233.1529 32396.8984

Name: 65127 (MANNOSE 6-PHOSPHATE)
RT: 0.620000
PUBCHEM_COMPOUND_CID: 65127
Precursor_type: [M-H2O-H]-
PrecursorMZ: 241.0120
Comment: 0.62_241.0120m/z
Formula: C6H13O9P
Num Peaks: 28
53.0090 3464.2053
64.1395 3506.6311
75.0081 3933.8201
78.9591 83443.7500
88.0214 3471.9907
96.9696 50877.7813
100.9460 11802.3330
103.9207 4138.7788
104.9515 3826.8005
120.9703 26562.2500
128.9472 4471.5581
138.5142 3657.0413
138.9815 3720.1274
144.9431 6489.8071
150.9156 122970.9497
152.9672 9107.4980
162.8950 5897.5439
168.9260 16933.8613
168.9601 6868.7271
172.9405 31656.2539
184.9149 6968.5537
194.9063 54935.4766
196.8665 12541.8818
196.9578 13645.7227
212.9188 28159.2637
222.8604 10635.1172
240.8713 107844.0391
241.0120 340635.0313

Name: 53481030 (CYTIDINE 2',3'-CYCLIC PHOSPHATE)
RT: 0.750000
PUBCHEM_COMPOUND_CID: 53481030
Precursor_type: [M-H]-
PrecursorMZ: 304.0343
Comment: 0.75_304.0343m/z
Formula: C9H12N3O7P
Num Peaks: 27
58.5387 9601.7480
61.1510 2040.2789
67.0301 538250.8623
71.2730 9742.1973
72.7064 9098.6699
78.9593 98014.7722
86.1451 9574.4141
92.2373 2064.8594
96.9698 107858.2217
109.7419 9542.3203
110.0359 22407185.1074
110.0495 230330.5625
110.3318 10406.1758
130.9701 2164.4419
146.9608 14878.7314
148.0521 20702.9785
174.9553 71841.7148
176.0462 22521.1406
176.1228 2070.9939
191.9170 10776.9873
192.9907 237216.8486
206.0580 27340.7480
210.0171 23463.6289
217.9036 9750.8262
235.9149 8305.2900
261.3217 2614.3796
304.0342 1928305.2773

Name: 439194 (GLYCERATE)
RT: 1.720000
PUBCHEM_COMPOUND_CID: 439194
Precursor_type: [M-H]-
PrecursorMZ: 105.0193
Comment: 2.02_105.0193m/z
Formula: C3H6O4
Num Peaks: 50
50.1427 208.0469
51.1699 234.1590
51.3252 612.2517
51.5071 223.3503
51.8064 201.8344
54.9139 207.8075
54.9453 261.5997
55.3355 221.3312
55.8413 202.5586
56.3435 214.9396
56.7630 216.9479
56.9793 546.8029
56.9981 1300.6652
59.0137 26962.5320
60.0170 620.9153
60.0846 252.3786
60.1294 246.8360
62.3374 213.0252
63.1217 210.0892
64.1530 229.3582
68.0508 210.8940
72.9844 469.5003
72.9937 58306.3605
73.0027 679.6849
73.9965 3052.0710
75.0091 71505.0610
75.0166 414.2386
75.1607 212.2883
76.0121 3563.8071
76.9340 221.3056
81.6519 226.7494
82.6040 225.8385
86.7543 230.6800
88.3326 234.5453
89.9257 13971.7265
90.9231 1355.1999
91.9108 272.6569
91.9213 16744.1651
91.9325 367.7742
92.9290 3451.2212
93.8991 226.4469
93.9187 1360.8216
99.5244 284.8505
103.0044 948.4674
103.1798 238.9134
103.9201 874.8260
104.5000 241.7433
104.6472 207.6069
104.9285 2953.4547
105.0194 273107.0095


Name: 439160 (FRUCTOSE 6-PHOSPHATE)
RT: 0.650000
PUBCHEM_COMPOUND_CID: 439160
Precursor_type: [M-H2O-H]-
PrecursorMZ: 241.0120
Comment: 0.65_241.0120m/z
Formula: C6H13O9P
Num Peaks: 50
55.9405 493.9879
58.9820 495.2522
72.6971 489.1788
75.0081 3288.9120
78.9592 240546.4883
78.9702 2820.4208
80.0239 531.5754
89.8216 511.2958
96.9697 71558.9819
99.9267 528.8350
103.9196 6512.5527
104.9539 1153.9392
105.6968 532.3302
116.9282 1242.7746
118.9654 1128.0327
120.9697 49674.1968
128.9467 2855.4657
132.9059 1108.1313
135.0289 498.0882
138.9098 2091.2491
138.9804 1224.8413
144.9406 3599.6597
150.8896 866.7961
150.9156 104763.9387
150.9434 1287.8774
150.9731 537.8412
150.9785 695.0549
152.9673 10653.3527
160.8931 2287.0175
162.8946 4525.6807
166.9113 1774.4800
168.9254 14653.1517
168.9595 6723.3967
172.9399 24832.2971
182.8999 572.0582
183.9136 537.6237
184.9115 3650.6250
184.9173 2185.8104
194.8749 499.3972
194.9077 56500.8429
196.8680 12452.7366
196.9571 15536.9186
197.9459 4258.0021
212.9211 27798.7952
213.9159 943.6788
221.3563 532.7350
222.8613 9812.4131
223.0027 781.3628
240.8712 121208.0439
241.0121 530775.1356


Name: 10917 (L-CARNITINE)
RT: 0.630000
PUBCHEM_COMPOUND_CID: 10917
Precursor_type: [M+FA-H]-
PrecursorMZ: 206.1035
Comment: 0.63_206.1035m/z
Formula: C7H15NO3
Num Peaks: 22
59.0136 30090.6152
61.9881 16657.2637
90.9226 4239.2354
90.9341 8441.1504
91.9311 7971.7593
99.9252 3705.8242
101.0247 7846.9814
101.9249 7012.7090
106.9203 4267.7129
118.9267 3357.0979
118.9929 51749.6758
131.9109 5141.6626
131.9634 3941.5808
146.0822 169949.8281
159.8857 11935.1875
160.9391 5714.8120
161.8938 6788.5112
162.8934 11143.6582
162.9831 144948.7656
177.9004 24725.6387
178.8951 12060.0625
205.8855 6583.3110

Name: 192590 (N-ALPHA-ACETYLLYSINE)
RT: 0.760000
PUBCHEM_COMPOUND_CID: 192590
Precursor_type: [M-H]-
PrecursorMZ: 187.1089
Comment: 0.76_187.1089m/z
Formula: C8H16N2O3
Num Peaks: 36
58.0297 168619.2969
58.0366 6699.2026
60.7906 4879.3350
70.4679 4383.7788
75.0429 6940.9209
76.6145 5136.3345
84.8040 6046.3750
88.9879 15279.7344
97.0772 83438.3984
98.9550 6239.5664
99.0930 29545.5234
99.9255 27670.3770
100.9346 5358.2720
103.4866 4970.2573
114.0916 8693.4092
114.9512 21773.2715
115.0003 7025.0581
115.9206 7935.2163
116.9274 8322.7168
126.0924 80726.5781
129.9364 6743.5161
135.3621 5710.3726
138.5254 6642.4868
140.8863 7624.8535
141.1032 11190.8643
142.8989 46950.7539
142.9413 23248.0957
143.1190 795137.2715
143.1396 16083.3604
143.8989 60697.3086
145.0981 7441430.2813
145.1188 90123.6016
158.8931 66228.2813
159.8938 73520.3594
186.9321 25655.5898
187.1088 2804592.7422

Name: 1015 (O-Phosphorylethanolamine)
RT: 0.860000
PUBCHEM_COMPOUND_CID: 1015
Precursor_type: [M-H]-
PrecursorMZ: 140.0119
Comment: 0.86_140.0119m/z
Formula: C2H8NO4P
Num Peaks: 7
78.9492 6051.9146
78.9590 85174.1094
78.9748 3592.2986
95.9179 4355.9370
98.6354 3540.5200
112.9558 4415.6792
140.0105 5485.7222

Name: 6076 (CYCLIC AMP)
RT: 2.840000
PUBCHEM_COMPOUND_CID: 6076
Precursor_type: [M-H]-
PrecursorMZ: 328.0455
Comment: 2.84_328.0455m/z
Formula: C10H12N5O6P
Num Peaks: 41
61.7009 1920.4674
62.0740 1967.1566
72.0834 2057.9561
78.9590 503611.8164
80.9749 6467.2930
90.9333 61225.5977
96.9695 50146.1406
98.9565 5798.1768
102.9336 61769.5684
107.0361 11693.3193
112.9855 9678.1274
113.0230 3085.1062
114.9523 2756.3220
124.9353 3664.4792
126.9506 3966.0410
130.9408 4828.9214
134.0473 2768989.3665
134.0665 64341.6211
134.9856 36478.3284
142.9468 19863.0977
146.9232 129941.3359
146.9613 13290.3804
148.9383 12716.8940
150.9561 3107.5159
154.9464 20095.6875
162.9800 5392.7231
169.9445 2928.3220
170.9417 38783.0215
174.9537 34173.2314
174.9843 5067.5215
178.9480 14324.1318
178.9801 7392.0742
192.9298 55814.7402
192.9899 44824.2383
197.9410 13671.5728
198.9362 97463.4648
255.8767 12674.4507
260.9137 2704.3625
272.8546 13013.1714
299.8678 12806.5591
328.0456 2884114.5562

Name: 65124 (3-NITRO-L-TYROSINE)
RT: 3.670000
PUBCHEM_COMPOUND_CID: 65124
Precursor_type: [M-H]-
PrecursorMZ: 225.0518
Comment: 3.67_225.0518m/z
Formula: C9H10N2O5
Num Peaks: 43
71.0459 3614.3865
72.0091 4435.3101
84.7692 4114.9136
105.2518 3683.9170
108.0215 19346.6309
109.0289 5943.8149
116.9283 2430.6064
117.0343 5213.5205
118.0296 25401.1504
119.0503 112062.5657
119.0662 3059.9802
121.0292 15241.9141
122.0377 25748.9414
133.0531 37491.9609
134.0376 44628.4573
134.0612 121311.8765
135.0309 18057.6309
135.0680 14174.3574
136.0404 350066.1592
138.0194 44606.7598
145.0412 14542.2861
148.0406 37037.2344
149.0482 9039.6758
150.0559 35543.2813
151.0275 237266.3828
156.8943 2596.2336
162.0401 6373.7720
163.0515 1328879.2773
164.0336 285593.9346
165.0399 21526.6699
178.9061 5896.9028
180.0547 21246.0938
180.8725 34384.4875
181.0618 522229.6563
183.0168 8988.5850
196.8668 172537.1509
196.9091 3327.4253
198.8813 35153.8818
208.0258 29667.3242
212.8603 3720.7852
214.8780 2447.6021
224.8637 39311.0332
225.0518 698175.5156


Name: 967 (OROTATE)
RT: 0.870000
PUBCHEM_COMPOUND_CID: 967
Precursor_type: [M-H]-
PrecursorMZ: 155.0100
Comment: 0.87_155.0100m/z
Formula: C5H4N2O4
Num Peaks: 21
57.0327 4249.8799
63.5221 3582.6111
66.9437 10705.9551
66.9943 10497.6221
80.9463 5430.9409
87.0085 16565.5625
96.9410 37498.3320
96.9600 68316.6094
98.9567 128325.9766
98.9709 7894.2256
110.9845 93961.7188
111.0199 792251.6162
114.9516 218718.5718
124.9356 5462.2720
126.9512 5488.5527
128.9666 5531.8115
142.9466 155783.4219
154.8952 151078.2656
154.9479 9466.1230
154.9744 20430.4863
155.0103 17504.8965

Name: 168381 (LAUROYLCARNITINE)
RT: 12.710000
PUBCHEM_COMPOUND_CID: 168381
Precursor_type: [M+FA-H]-
PrecursorMZ: 388.2709
Comment: 12.71_388.2709m/z
Formula: C19H37NO4
Num Peaks: 16
144.1031 9811.1055
146.9618 23204.9785
174.9561 62385.5000
184.9515 4928.4014
199.1705 248782.5938
200.1756 15333.2012
217.5353 7949.8159
275.8986 5613.2827
280.9879 6042.6362
298.7712 4448.2710
304.9857 8183.5825
308.9885 6320.4048
328.9901 27057.8359
348.9974 14189.2217
369.0005 16896.2988
388.0112 4994.6685

Name: 187790 (DEOXYGUANOSINE)
RT: 2.960000
PUBCHEM_COMPOUND_CID: 187790
Precursor_type: [M-H]-
PrecursorMZ: 266.0895
Comment: 2.96_266.0895m/z
Formula: C10H13N5O4
Num Peaks: 34
59.0138 28810.6465
82.0409 12991.1514
98.9568 10133.7842
99.9269 8345.3418
107.0359 42079.6523
108.0204 85539.1484
108.9352 10528.9287
110.9437 6267.9097
114.9521 5799.9512
116.9286 21996.8066
125.0473 6522.3188
126.0309 17226.9121
126.9516 6394.2422
133.0156 325692.9063
134.0365 18040.6309
142.9467 20374.5684
149.0347 21777.3672
150.0422 3561760.4375
152.9243 8051.0283
154.8945 29670.6191
154.9464 24608.0977
170.9412 35276.1328
175.8620 160699.0723
176.0579 424023.9482
190.8486 12127.6787
197.9396 12103.4395
198.8876 12791.8350
198.9359 58119.4023
218.0639 5463.9727
219.8089 5424.0791
219.8509 28750.3184
220.8665 8727.1592
248.0774 10929.0098
266.0895 3714494.4219


Name: 439155 (S-ADENOSYLHOMOCYSTEINE)
RT: 2.140000
PUBCHEM_COMPOUND_CID: 439155
Precursor_type: [M-H]-
PrecursorMZ: 383.1147
Comment: 2.14_383.1147m/z
Formula: C14H20N6O5S
Num Peaks: 19
71.0138 9918.9736
74.9909 16013.1152
86.9911 21173.0879
105.0027 4773.9492
129.0021 6853.3999
134.0473 724053.3711
144.0485 4381.9814
146.3368 4147.7896
176.0386 15505.6211
180.8727 4633.3555
188.0396 31827.4902
200.8816 8482.2656
220.3632 4831.1821
224.8645 8951.7256
248.0592 24395.7949
268.8739 4283.2983
270.8684 21821.8789
311.8154 4106.3853
383.1142 191780.4766

Name: 24316 (CYCLIC GMP)
RT: 2.810000
PUBCHEM_COMPOUND_CID: 24316
Precursor_type: [M-H]-
PrecursorMZ: 344.0405
Comment: 2.81_344.0405m/z
Formula: C10H12N5O7P
Num Peaks: 50
53.7606 1686.7910
62.9645 1824.1536
78.9591 248293.9036
78.9700 2551.3016
80.9747 5644.5133
85.0859 1806.1037
90.9224 1913.9578
90.9337 5645.6227
91.9203 3292.6354
91.9312 18536.7109
92.9290 21733.9219
96.9699 41089.1862
103.9316 17685.1012
104.9293 9645.5840
105.9472 7429.1099
107.0362 8577.0052
108.0204 6916.7411
119.9268 8388.1396
132.9227 5607.1849
133.0156 115730.0223
134.9853 10457.7100
142.9458 2618.9969
146.9229 2493.3215
147.9219 79400.8411
149.9379 69896.7397
150.0423 744220.8301
150.0711 1790.9816
154.9453 6739.6165
163.3003 1550.9007
163.8627 3535.6636
166.8772 1557.6336
170.9413 5864.7694
174.9799 4373.9925
179.8596 11530.9069
183.8517 2273.0975
185.8691 6656.2147
192.9908 13941.0739
193.9264 39020.1406
196.9429 7893.7718
198.9359 14818.4658
204.0544 2131.9738
209.8665 25655.3278
228.0551 1752.8278
228.8626 7383.3188
242.8391 5993.7619
246.0675 2104.6165
253.8557 1582.5706
260.8503 2770.3317
271.8519 6227.3040
344.0404 1142628.4518

Name: 448580 (N-ACETYLMETHIONINE)
RT: 4.700000
PUBCHEM_COMPOUND_CID: 448580
Precursor_type: [M-H]-
PrecursorMZ: 190.0545
Comment: 4.70_190.0545m/z
Formula: C7H13NO3S
Num Peaks: 42
57.9620 4018.4907
58.9591 35757.1094
68.2563 13992.1943
70.0299 23382.2949
76.4721 2255.5347
82.5475 15160.8672
83.5641 13269.2617
84.0453 275382.0332
84.0561 20419.5391
87.9253 15459.3232
98.0610 429729.9023
98.0757 20987.2090
99.9268 36488.2871
100.0401 29243.2461
100.9328 67557.4570
101.9520 193360.0078
101.9680 3854.4502
102.9488 755963.2188
103.9197 3402.9629
112.0407 184104.7129
115.9206 50155.3066
116.9268 4815.9565
117.9461 2367.9929
133.9185 2310.5703
134.9144 4690.0601
142.0511 2022324.1641
142.0711 44071.9063
144.9236 4824.8398
145.8997 29805.3447
145.9420 92635.5508
146.0645 37448.0977
146.8992 50481.6504
146.9380 261143.8203
148.0439 2539359.0430
148.0660 41243.6641
161.8936 18207.6465
162.8938 69484.6719
162.9194 2481.0005
174.7400 13786.7559
189.8521 20583.7358
189.8877 2457.4045
190.0544 1862009.5117


Name: 123831 (N,N-DIMETHYLARGININE)
RT: 0.700000
PUBCHEM_COMPOUND_CID: 123831
Precursor_type: [M-H]-
PrecursorMZ: 201.1358
Comment: 0.70_201.1358m/z
Formula: C8H18N4O2
Num Peaks: 24
67.0303 25907.0176
86.0722 46589.4414
97.0276 19570.9609
100.9530 126232.5078
110.0723 52109.6211
110.9702 51926.3320
112.0881 123296.6172
113.0719 106085.2109
114.0559 1097652.9922
116.9488 71884.7891
126.9335 44717.7227
128.9494 62647.4492
138.0674 41475.8594
139.0515 25383.5293
144.9439 265451.0313
145.7800 21002.4707
152.6073 21796.7207
156.0780 4346518.3125
156.1026 87795.3438
156.8918 94051.8516
156.9429 129310.7539
172.8855 34713.2383
172.9396 193933.5938
201.1359 3168218.2969


Name: 190 (ADENINE)
RT: 0.940000
PUBCHEM_COMPOUND_CID: 190
Precursor_type: [M-H]-
PrecursorMZ: 134.0472
Comment: 0.94_134.0472m/z
Formula: C5H5N5
Num Peaks: 7
52.5657 5290.6753
63.3876 6222.3828
92.0253 39955.1094
107.0364 215526.5000
107.0532 8819.5439
116.9211 12893.9834
134.0473 1800368.2012

Name: 10258 (INDOXYL SULFATE)
RT: 4.050000
PUBCHEM_COMPOUND_CID: 10258
Precursor_type: [M-H]-
PrecursorMZ: 212.0024
Comment: 4.05_212.0024m/z
Formula: C8H7NO4S
Num Peaks: 21
57.5855 2490.9238
67.4403 2508.6655
79.9574 748804.1334
80.9652 646267.4336
80.9741 14381.9580
92.0506 32250.8423
100.9329 6589.2976
101.9996 1766.2061
115.9205 6553.2178
116.9291 1969.1133
118.0300 12136.1055
118.9243 9801.5388
120.0457 10515.4346
132.0455 290236.3936
144.9228 2393.8782
150.9160 8831.6206
168.9396 2123.1716
168.9872 2868.5361
200.1363 2586.1238
211.8203 8610.5994
212.0024 1747865.2732


Name: 760 (GLYOXYLATE)
RT: 0.700000
PUBCHEM_COMPOUND_CID: 760
Precursor_type: [M+FA-H]-
PrecursorMZ: 118.9986
Comment: 0.70_118.9986m/z
Formula: C2H2O3
Num Peaks: 17
50.2363 529.0884
51.1842 677.1998
51.4953 561.2387
52.1257 491.9131
56.3183 561.4469
72.9929 23955.2458
75.0087 20738.5820
76.4015 600.3000
76.6343 600.8726
89.8727 549.5922
89.9250 9149.0152
90.9333 2509.9085
90.9714 704.4354
91.4902 595.2680
101.9240 12618.7843
118.9268 164214.3581
118.9978 8657.9867

Name: 500 (4-Guanidinobutyric acid)
RT: 0.920000
PUBCHEM_COMPOUND_CID: 500
Precursor_type: [M-H]-
PrecursorMZ: 144.0779
Comment: 0.92_144.0779m/z
Formula: C5H11N3O2
Num Peaks: 16
80.9962 4676.8643
83.0615 17439.9883
84.0452 4258.5537
98.9373 4397.1348
99.9253 11550.9902
100.9337 164537.5313
100.9516 15313.6221
102.0560 415344.2002
102.0696 9550.9922
115.9207 215558.6250
115.9503 9579.9805
116.9287 10055.3252
116.9472 9449.9355
127.0512 9249.6211
143.8977 6817.2236
144.0773 15530.2158

Name: 90301 (URACIL 5-CARBOXYLATE)
RT: 1.410000
PUBCHEM_COMPOUND_CID: 90301
Precursor_type: [M-H]-
PrecursorMZ: 155.0099
Comment: 1.41_155.0099m/z
Formula: C5H4N2O4
Num Peaks: 35
54.7800 1211.6191
66.9437 11881.4378
66.9944 8459.2087
68.0142 454862.7760
68.0206 2262.4689
71.4682 1445.1206
72.3352 1356.3394
80.9458 6876.9715
87.0087 13378.7178
88.1515 1455.2660
94.0476 1923.6646
96.9410 39981.5807
96.9600 83805.5990
98.9568 106566.1328
98.9707 2862.3942
101.3410 1396.0972
104.4339 2280.4629
107.6198 1302.0059
110.9333 5317.4010
110.9574 4110.7021
110.9845 85918.9479
111.0200 206772.0326
111.0387 6496.1062
112.0038 25300.8457
114.9516 182978.1605
114.9666 1078.8518
124.9362 7786.3979
126.9518 3351.3849
128.9650 4490.0238
142.9468 154199.6918
142.9669 1505.7882
154.8968 122193.3568
154.9477 3726.9339
154.9755 4969.4873
155.0099 1077674.4564

Name: 88064 (N-ACETYLALANINE)
RT: 1.760000
PUBCHEM_COMPOUND_CID: 88064
Precursor_type: [M-H]-
PrecursorMZ: 130.0510
Comment: 1.76_130.0510m/z
Formula: C5H9NO3
Num Peaks: 7
61.9880 22717.4258
88.0404 697154.9375
99.9264 41987.4531
100.9335 18717.6250
115.9202 12372.7930
116.9283 10022.7295
130.0508 97068.9609


Name: 73563 (GLUCOSAMINATE)
RT: 0.570000
PUBCHEM_COMPOUND_CID: 73563
Precursor_type: [M-H]-
PrecursorMZ: 194.0671
Comment: 0.57_194.0671m/z
Formula: C6H13NO6
Num Peaks: 43
56.1733 6220.1025
59.0137 1365686.5078
68.0145 33287.1055
70.0298 211933.1416
71.0137 260806.7461
74.0247 6335974.2969
75.9368 16427.2480
84.0455 92528.7031
86.0247 1447561.9023
86.0371 68611.0703
86.2281 29349.4863
87.9478 12828.6738
88.9454 28771.6797
89.0243 252986.2656
90.6893 27873.2422
90.9234 266079.8594
90.9341 28662.2578
91.9318 1164842.6484
92.9429 8427.7168
93.9471 325734.8594
96.0458 43007.6953
98.0248 1607374.6641
101.0241 264779.4438
102.9334 25288.5117
103.9314 2708664.5000
105.9474 328795.6719
106.3364 28822.4824
107.9261 22625.2461
119.9262 783417.7500
119.9466 15432.9561
128.0353 757634.6270
130.5441 33431.4688
130.9923 26352.8691
131.9376 21482.1523
132.9345 39850.6719
140.0363 75576.6719
147.9212 2508577.8750
149.9371 528607.8594
149.9655 15249.8145
150.9162 7945.5010
158.0460 564527.6182
176.0564 128616.3828
194.0669 4785653.7969

Name: 222285 (ERYTHRITOL)
RT: 0.650000
PUBCHEM_COMPOUND_CID: 222285
Precursor_type: [M+FA-H]-
PrecursorMZ: 167.0562
Comment: 0.65_167.0562m/z
Formula: C4H10O4
Num Peaks: 15
61.9885 62291.0352
73.3757 9975.8301
73.5388 11472.5146
86.3898 9867.6309
90.9237 143575.2500
96.9886 17851.2754
97.9602 11028.4922
98.3185 10550.1133
98.9563 32169.8809
120.9218 15204.3584
121.0530 11725.6621
121.8975 11649.7197
122.9377 20101.2129
123.9159 12295.2139
138.9300 25047.9277

Name: 94214 (METHYL GALACTOSIDE)
RT: 0.750000
PUBCHEM_COMPOUND_CID: 94214
Precursor_type: [M+FA-H]-
PrecursorMZ: 239.0774
Comment: 0.75_239.0774m/z
Formula: C7H14O6
Num Peaks: 23
96.9601 2515.3821
102.9568 8515.8972
103.9206 5633.5920
142.9463 1930.3621
147.8906 3471.8835
148.9203 6675.9976
160.8939 2373.9263
163.8884 5969.3689
166.9111 6780.4329
170.9419 3151.3374
181.8994 22945.3428
182.9039 1922.3247
183.8774 2447.2295
183.9133 75446.4180
192.8819 8170.4744
192.9164 2618.8101
193.0727 10969.4902
210.8968 11793.8184
220.8602 6074.8674
221.7106 1947.0854
236.3648 2073.3350
238.8700 119063.9414
238.9200 2516.6282

Name: 7045767 (O-ACETYLCARNITINE)
RT: 0.980000
PUBCHEM_COMPOUND_CID: 7045767
Precursor_type: [M+FA-H]-
PrecursorMZ: 248.1140
Comment: 0.98_248.1140m/z
Formula: C9H17NO4
Num Peaks: 28
56.8322 4411.5718
59.0137 32693.5703
65.7483 4175.2695
99.9263 13147.4707
103.9418 5664.9253
112.9858 177384.0781
113.0045 5296.3145
116.9287 9147.9580
117.9286 30996.4346
127.9061 3531.3860
152.9184 13207.4570
156.9097 8755.1426
157.9267 9561.4092
158.0691 4258.1318
158.9239 53994.2578
173.9215 35056.7734
174.9186 277153.4375
176.9351 19997.4238
180.9130 91577.0391
180.9730 6020.7603
183.2133 4960.9072
191.9333 33377.9727
192.9293 247066.8594
201.8817 16190.7002
201.9184 44211.1836
202.9138 339170.5625
219.9290 44320.5234
220.9242 320757.3438

Name: 124886 (L-Glutathione reduced)
RT: 1.100000
PUBCHEM_COMPOUND_CID: 124886
Precursor_type: [M-H]-
PrecursorMZ: 306.0768
Comment: 1.10_306.0768m/z
Formula: C10H17N3O6S
Num Peaks: 50
58.0293 5350.2777
74.0248 25562.5010
86.0248 15126.8564
87.0563 2664.3996
90.0024 2296.5542
99.0564 28749.4613
112.0407 2044.1346
127.0509 2687.5203
128.0352 111772.5885
128.0585 3051.3831
135.0558 5132.7181
141.0665 8952.4658
143.0230 2409.9894
143.0462 183779.9531
143.0663 1676.3338
143.0733 1857.2220
145.0616 7436.6844
146.0451 17165.6243
146.9612 11354.4057
153.0666 12080.4160
160.0072 47824.7337
166.0979 6146.7912
167.0459 11963.8506
167.0814 4813.5558
174.9561 21406.2393
175.9597 3938.2754
177.0328 18027.9525
179.0458 43514.9258
181.0608 2685.9468
184.1081 4843.0015
185.0570 7186.4525
197.0552 6814.2308
198.0901 4718.9056
210.0883 44430.1966
214.9270 7570.4570
215.8251 4041.1862
215.8301 1902.8138
220.8871 1806.0482
228.0984 2321.5438
233.8984 4715.6628
233.9036 1701.9505
237.8736 5446.9723
238.8693 3827.3477
242.0784 5440.9487
254.0782 52447.4759
272.0884 78910.4896
288.0668 19429.6829
305.7816 2920.3779
305.9048 2755.7562
306.0761 132803.4245

Name: 743 (GLUTARATE)
RT: 2.780000
PUBCHEM_COMPOUND_CID: 743
Precursor_type: [M-H]-
PrecursorMZ: 131.0350
Comment: 2.78_132.0423n
Formula: C5H8O4
Num Peaks: 25
50.1541 6653.9049
55.5333 2239.5975
56.3895 2135.5205
58.2102 1960.0160
61.1829 1539.4987
69.0347 139411.1899
71.0134 2021.5612
71.2650 831.3095
76.6500 2037.0960
87.0452 1780905.5409
87.0551 9211.1823
89.9259 813.4258
90.9334 1374.0272
98.0348 1749.6981
99.9242 2229.9230
100.9336 225566.2236
102.9891 796.9618
113.0243 174988.7005
113.9261 20171.1650
115.9209 190505.4144
115.9365 687.3009
121.6785 2198.9458
130.9454 3245.1436
130.9919 38516.0436
131.0350 556109.4489

Name: 743 (GLUTARATE)
RT: 2.780000
PUBCHEM_COMPOUND_CID: 743
Precursor_type: [M+Na-2H]-
PrecursorMZ: 153.0170
Comment: 2.78_132.0423n
Formula: C5H8O4
Num Peaks: 22
52.2107 3445.4819
64.9456 26012.0898
64.9987 13903.1357
72.1205 3300.8599
72.9906 13411.3672
85.0295 8903.7520
87.0452 201690.3662
87.0557 3624.5500
94.9264 4696.4297
96.9263 5653.1450
96.9612 21163.3823
96.9881 4453.4814
101.0240 5214.4702
108.9367 22040.1035
108.9885 107630.8594
112.9561 28125.8525
125.0219 15156.3311
127.0371 25124.4883
140.9512 9839.8799
141.9496 9686.8301
146.4786 4027.1113
153.0170 921981.5742

Name: 493570 (RIBOFLAVIN)
RT: 6.850000
PUBCHEM_COMPOUND_CID: 493570
Precursor_type: [M-H]-
PrecursorMZ: 375.1315
Comment: 6.85_376.1388n
Formula: C17H20N4O6
Num Peaks: 21
53.4486 4087.5322
59.0139 18751.5645
89.0243 10694.7666
101.0244 8783.2061
144.0856 4962.3896
145.0768 5757.5034
158.9778 10407.9014
169.0778 9161.7676
174.9554 6445.1611
184.0879 30755.0977
185.0687 6356.0654
198.0685 12293.7754
212.0830 405187.4375
212.1212 7532.7764
240.0651 29569.8340
241.0732 202870.5938
241.1193 3081.0107
255.0887 2616088.3672
257.1034 22650.0645
332.2219 5316.4702
375.1313 205305.9375

Name: 493570 (RIBOFLAVIN)
RT: 6.850000
PUBCHEM_COMPOUND_CID: 493570
Precursor_type: [M+FA-H]-
PrecursorMZ: 421.1369
Comment: 6.85_376.1388n
Formula: C17H20N4O6
Num Peaks: 11
52.5519 3593.6187
65.0416 3276.6150
74.5470 3862.1194
95.2323 3595.3325
137.3118 3779.5271
174.9580 4202.4385
212.0802 8341.2051
218.7625 4376.4814
255.0886 154629.2813
279.1439 4624.7393
375.1304 11340.4209


Name: 193653 (S-CARBOXYMETHYLCYSTEINE)
RT: 0.770000
PUBCHEM_COMPOUND_CID: 193653
Precursor_type: [M-H]-
PrecursorMZ: 178.0181
Comment: 0.77_178.0181m/z
Formula: C5H9NO4S
Num Peaks: 39
56.9618 1348.4976
65.1943 1326.7299
67.8010 1252.1984
67.8415 1599.0907
68.1502 1294.0028
71.0141 1598.6740
72.9937 1528.3983
74.5533 1286.7113
84.5533 1494.8983
84.9908 30383.6296
86.0249 20561.5771
88.9882 6265.9674
89.9267 28351.4007
90.9236 3754.2389
90.9860 1045325.0815
90.9963 52632.3802
91.9317 11374.9102
92.9288 3912.1120
99.9256 19813.5788
122.9593 19248.0117
125.5377 1435.2832
131.9261 1501.7375
133.9420 164881.8503
133.9660 1964.4604
134.0297 1944.1722
134.8752 1923.1839
134.9662 3427.8460
134.9879 158205.9115
148.9026 1340.6222
149.9586 13140.9437
150.9542 140699.9427
150.9760 2211.3925
154.5118 1488.6563
161.0098 6929.3278
161.8869 11190.8398
162.8936 10614.7536
177.8600 14287.6071
177.9028 57373.7747
178.0181 48412.4842


Name: 84265 (N-Acetyl-D-galactosamine)
RT: 0.710000
PUBCHEM_COMPOUND_CID: 84265
Precursor_type: [M+FA-H]-
PrecursorMZ: 266.0882
Comment: 0.71_266.0882m/z
Formula: C8H15NO6
Num Peaks: 45
51.3330 1856.2219
59.0137 74819.2305
61.9883 4859.8662
71.0137 10636.7803
79.4028 1879.3804
83.0137 2386.2581
89.0244 36163.9863
98.9568 13434.6685
99.9268 2660.1174
100.0401 62366.8926
101.0245 78370.3633
110.9432 1921.1604
114.9511 9840.1865
116.9280 4434.2129
119.0350 61651.3184
124.9363 5401.9448
126.9520 5307.7734
129.9745 3648.4111
141.9518 3111.0593
142.0506 3745.9724
142.9463 28150.4063
152.9179 2449.5000
153.9517 5238.9479
154.8957 28528.1055
154.9459 29071.5361
160.0613 8835.8579
169.8826 2102.6941
169.9448 8802.7207
170.9415 42315.0508
175.8616 37417.7032
175.9203 2151.0183
190.8482 2068.1726
192.9288 2158.4263
193.9304 2500.1992
197.9393 13919.1543
198.8880 11676.5151
198.9366 74345.7266
219.8540 3511.2708
219.9034 7719.7009
220.0842 3729.2454
220.8636 7252.8611
221.8242 2201.1443
221.8325 2591.4529
237.9133 2553.6816
238.8735 2543.1265

Name: 6926 (ANILINE-2-SULFONATE)
RT: 1.560000
PUBCHEM_COMPOUND_CID: 6926
Precursor_type: [M-H]-
PrecursorMZ: 172.0075
Comment: 1.56_172.0075m/z
Formula: C6H7NO3S
Num Peaks: 22
50.2969 4926.5698
75.0088 37339.5000
79.9572 72171.2578
83.9516 6860.1982
84.9571 7639.3735
97.9309 21079.5742
98.9374 33187.7070
99.9257 28161.8750
99.9569 35219.6758
100.9524 67998.3906
108.0452 13903.0908
114.9346 11152.0234
115.9513 34006.1133
116.4514 6576.5015
116.9474 111300.9297
127.9517 35834.0391
128.9474 137654.1563
143.9467 46591.7305
144.9423 112226.2891
153.9143 8890.7061
154.9474 10474.7783
172.0075 1480799.3828

Name: 70914 (N-ACETYLGLUTAMATE)
RT: 1.560000
PUBCHEM_COMPOUND_CID: 70914
Precursor_type: [M-H]-
PrecursorMZ: 188.0566
Comment: 1.56_188.0566m/z
Formula: C7H11NO5
Num Peaks: 50
57.0880 811.5067
58.0293 9865.6250
59.0137 57148.5195
64.6356 774.6662
82.0298 1035.5317
84.0450 2277.9513
84.9385 4348.3929
87.8673 797.3968
98.9374 3356.4193
99.9255 22646.0551
100.0407 4411.4460
100.0768 33775.7063
100.9325 3053.5969
100.9375 2071.5788
100.9533 54712.8484
100.9673 1461.0794
102.0559 142073.2164
102.0707 1576.5906
113.9260 1110.3215
114.9072 5728.2383
115.9211 11565.3951
116.9261 12753.5104
116.9460 7789.1850
126.0567 15308.6466
127.3905 837.6440
128.0352 221762.4197
128.0575 1912.1127
129.9357 2672.5740
131.8504 783.4805
132.2639 770.3735
132.9181 24139.6234
142.8958 844.0772
142.9424 1149.4404
143.2201 778.4767
143.8992 155067.8172
144.0665 89974.2398
144.0934 1577.1707
144.9206 16092.5904
144.9434 17105.4750
146.0461 21619.1258
159.8939 204102.7234
159.9247 3093.1596
160.9186 1139.6106
167.0189 932.9353
170.0455 83283.4146
175.9422 1978.4298
186.9329 4525.9296
187.8851 17978.2303
188.0196 4799.3865
188.0567 146059.6970

Name: 10250 (2,4-DIHYDROXYPTERIDINE)
RT: 2.200000
PUBCHEM_COMPOUND_CID: 10250
Precursor_type: [M-H]-
PrecursorMZ: 163.0263
Comment: 2.20_163.0263m/z
Formula: C6H4N4O2
Num Peaks: 21
52.9134 1998.0414
66.0627 2035.0696
72.9931 2034.8007
74.5349 1912.7793
74.9534 2300.9778
89.9255 9550.7939
101.0245 2070.2107
111.7956 2071.0105
115.9201 2020.5587
116.9290 9604.6262
118.9258 6764.5669
118.9928 57554.1035
119.0510 1940.1597
119.9078 7304.1489
120.0201 38553.6338
127.3415 2224.6045
134.8941 7588.7083
134.9146 2589.3845
146.9605 2235.1218
162.8935 408907.4531
163.0262 663246.2202

Name: 12035 (N-ACETYLCYSTEINE)
RT: 2.400000
PUBCHEM_COMPOUND_CID: 12035
Precursor_type: [M-H]-
PrecursorMZ: 162.0231
Comment: 2.40_162.0231m/z
Formula: C5H9NO3S
Num Peaks: 18
57.2265 1745.6724
60.4602 1528.7542
61.2440 1599.6312
84.0454 51994.1317
84.0556 2283.2566
86.9492 1725.9233
99.9262 4846.5962
100.9260 15939.3276
108.6290 1939.1200
115.9204 3398.7485
117.9288 24122.2306
118.9927 26425.3643
133.2034 1680.2797
134.9127 2240.7522
143.9252 7587.3716
161.8940 155531.6172
161.9395 6728.6299
162.0233 18462.1953

Name: 72924 (6-Hydroxypyridine-3-carboxylic acid)
RT: 2.450000
PUBCHEM_COMPOUND_CID: 72924
Precursor_type: [M-H]-
PrecursorMZ: 138.0197
Comment: 2.45_138.0197m/z
Formula: C6H5NO3
Num Peaks: 6
52.2795 3206.8528
83.8811 3502.4866
94.0297 275406.5938
109.8981 7512.5752
110.8964 11204.1611
138.0197 44569.9648

Name: 13730 (DEOXYADENOSINE)
RT: 2.760000
PUBCHEM_COMPOUND_CID: 13730
Precursor_type: [M+FA-H]-
PrecursorMZ: 296.1003
Comment: 2.76_296.1003m/z
Formula: C10H13N5O3
Num Peaks: 6
134.0480 4476.8037
213.8727 4116.5513
221.8585 4571.8257
250.0943 4141.9878
250.9006 6693.2524
251.8514 4786.1099

Name: 6613 (PANTOTHENATE)
RT: 4.050000
PUBCHEM_COMPOUND_CID: 6613
Precursor_type: [M-H]-
PrecursorMZ: 218.1035
Comment: 4.05_218.1035m/z
Formula: C9H17NO5
Num Peaks: 36
59.0139 11517.0059
71.0139 283664.2930
71.0503 151140.7036
75.3665 1777.2926
78.3524 9022.9482
88.0404 3311004.8777
91.9309 3804.6179
98.9267 8818.9482
99.0450 64023.9180
99.9260 58969.6875
103.9308 5662.2544
104.4765 1844.2925
116.0354 21080.1758
116.0721 42710.5742
116.9278 6891.1055
129.0555 21184.7051
129.9718 2596.6792
140.2725 1832.3390
146.0567 3436.2903
146.0823 1739060.6406
147.9208 5198.8604
150.6052 8722.9199
171.9465 4031.5693
172.9199 8552.0215
172.9570 2192.6990
173.8667 35589.7646
174.8640 143602.5859
188.8560 3479.8767
189.8505 23609.9316
190.9323 3585.6521
192.9290 3319.5220
196.6543 9053.6367
200.8507 3602.3481
200.9159 2115.5420
217.8538 3628.2166
218.1035 1615760.7732


Name: 25310 (RHAMNOSE)
RT: 0.720000
PUBCHEM_COMPOUND_CID: 25310
Precursor_type: [M-H]-
PrecursorMZ: 163.0613
Comment: 0.72_164.0686n
Formula: C6H12O5
Num Peaks: 24
58.0057 7985.8892
59.0137 325882.1875
71.0139 47777.3164
72.9933 12178.9971
73.0292 32116.7012
74.9540 5004.3032
85.0292 28138.2754
89.0242 33674.3398
89.9260 22340.8164
91.9314 11637.5400
93.0351 4349.0391
101.0246 22508.1035
103.0394 11951.6543
115.9224 4436.4805
116.9281 11987.0977
117.9211 5339.6914
118.9237 6217.8003
118.9439 4128.0322
118.9926 50130.3086
119.9073 11758.0225
134.8941 7455.6807
142.9938 3896.4138
162.8934 482478.8750
163.0027 8679.1826

Name: 25310 (RHAMNOSE)
RT: 0.720000
PUBCHEM_COMPOUND_CID: 25310
Precursor_type: [M+FA-H]-
PrecursorMZ: 209.0668
Comment: 0.72_164.0686n
Formula: C6H12O5
Num Peaks: 31
55.7532 3583.8945
59.0137 365292.3159
61.9886 5526.7021
71.0139 47879.9102
71.2370 3478.2024
73.0294 47704.5234
78.1643 3618.9094
85.0295 41488.4297
87.9253 7359.7949
89.0244 103164.0469
89.0366 6174.2686
89.9254 10080.8770
92.9292 10951.5723
99.9257 5719.2173
101.0245 69035.1094
103.0400 88587.2969
118.9434 5511.9429
119.0349 35122.9258
119.9234 13631.3145
120.8892 3724.1416
127.0405 13768.6016
145.0502 11010.7881
163.0614 72002.6953
163.9141 16290.0010
164.8951 16395.2891
165.9637 4112.3325
179.6230 3939.0388
180.9626 4283.7778
190.8492 4598.4907
208.8262 9250.7383
208.9778 11327.7520

Name: 439242 (RAFFINOSE)
RT: 0.750000
PUBCHEM_COMPOUND_CID: 439242
Precursor_type: [M-H]-
PrecursorMZ: 503.1618
Comment: 0.75_504.1691n
Formula: C18H32O16
Num Peaks: 44
55.2231 2968.4688
59.0137 230948.6172
64.8028 2270.7104
66.2551 2821.6602
71.0138 172088.3867
73.0294 20580.8198
76.5010 2084.4368
83.0141 4685.7720
85.0292 19299.9299
87.0088 75844.1631
89.0244 333152.9648
95.0143 7316.7363
97.0297 6103.0825
99.0087 3396.5151
99.0450 3806.2583
101.0244 212446.0977
101.0369 3051.2148
107.0344 13488.4670
113.0243 121928.2383
113.0409 3192.0510
115.0403 3033.6392
119.0349 78793.7969
119.0538 3616.4609
125.0235 10971.9678
129.0191 3707.2219
131.0351 29016.5540
141.0189 8715.5254
143.0353 61814.1592
143.0583 1786.6185
147.1884 2023.5945
149.0459 20896.6023
161.0455 92012.4854
174.9570 2202.2441
179.0561 479976.3984
179.0919 3673.6758
221.0667 281660.2227
224.8719 2337.6018
263.0119 2058.5098
263.0759 6135.1665
281.0863 17580.9451
311.1011 3804.0942
323.0988 38144.1616
341.1092 38003.4670
503.1618 368676.4019

Name: 439242 (RAFFINOSE)
RT: 0.750000
PUBCHEM_COMPOUND_CID: 439242
Precursor_type: [M+FA-H]-
PrecursorMZ: 549.1670
Comment: 0.75_504.1691n
Formula: C18H32O16
Num Peaks: 50
55.1005 2414.2200
59.0137 330333.4766
71.0054 2707.5068
71.0138 256302.9492
73.0296 30860.8164
83.0141 5898.6528
85.0295 23049.3130
86.9966 5376.1626
87.0087 117456.9746
89.0244 500642.6797
89.2307 2076.1460
95.0137 15228.4294
97.0292 7645.6772
99.0092 7252.5781
101.0245 325951.1914
101.0367 3299.7944
107.0350 16727.3528
111.0085 2659.2998
113.0243 172819.8828
113.0429 7711.6011
115.0400 4789.8335
117.0190 3044.9265
119.0350 108199.1719
119.0538 4131.9141
120.0967 2823.6292
125.0243 18677.2959
131.0352 42606.7471
141.0187 13027.4270
142.7988 2248.2170
143.0352 90216.2500
149.0454 30088.4292
149.9365 3143.0232
159.0284 3347.5933
161.0455 136164.5820
161.0708 2536.3237
179.0563 749528.8098
179.0848 7765.4814
193.9249 4584.2925
221.0666 416683.8359
263.0766 10273.4355
281.0872 27844.6396
305.0878 4103.1514
311.0943 2820.0601
323.0976 57492.2178
336.0607 2741.7629
341.1092 70634.5742
436.4456 2537.9956
503.1618 1135718.8525
503.3394 5243.7749
504.1783 3106.2559


Name: 75606 (N-FORMYLGLYCINE)
RT: 0.760000
PUBCHEM_COMPOUND_CID: 75606
Precursor_type: [M-H]-
PrecursorMZ: 102.0196
Comment: 0.76_102.0196m/z
Formula: C3H5NO3
Num Peaks: 11
58.0296 20549.2246
68.1401 1546.0825
74.0248 55883.5798
83.9303 7626.3198
89.9254 2512.6733
94.7369 5234.0757
97.8452 5318.8481
99.9259 81411.0513
100.0032 7079.0830
101.9337 94624.6602
102.0197 199109.7305

Name: 439242 (RAFFINOSE)
RT: 0.750000
PUBCHEM_COMPOUND_CID: 439242
Precursor_type: [M+FA-H]-
PrecursorMZ: 549.1670
Comment: 0.76_549.1670m/z
Formula: C18H32O16
Num Peaks: 18
59.0135 19830.6445
71.0136 20370.3477
87.0084 8088.4897
89.0244 42712.5742
90.1538 3658.4531
98.3753 3958.3208
101.0242 24114.9668
104.7049 4093.1328
113.0239 11383.9209
119.0350 15000.3389
143.0350 9252.2461
161.0446 7471.3252
179.0564 50824.5273
218.0322 9377.5713
218.0829 4447.9619
221.0673 32018.9473
379.0299 4220.2231
503.1609 100032.9297

Name: 111 (3-(carbamoylamino)propanoic acid)
RT: 0.940000
PUBCHEM_COMPOUND_CID: 111
Precursor_type: [M-H]-
PrecursorMZ: 131.0463
Comment: 0.94_131.0463m/z
Formula: C4H8N2O3
Num Peaks: 8
71.7204 4061.7529
76.0210 5409.0425
88.0404 377365.8750
90.9345 4859.6357
100.9332 16932.1563
113.9266 7935.0205
115.9208 20278.5820
130.9930 10907.5293

Name: 60961 (ADENOSINE)
RT: 2.580000
PUBCHEM_COMPOUND_CID: 60961
Precursor_type: [M+FA-H]-
PrecursorMZ: 312.0952
Comment: 2.58_312.0952m/z
Formula: C10H13N5O4
Num Peaks: 22
91.2944 3913.4695
100.9335 7042.8452
115.9207 4051.3582
134.0473 968093.0508
144.9218 4701.3276
146.9610 6368.3057
149.7916 4311.0454
153.9138 8362.2939
174.9562 10960.5654
175.9602 9488.9746
197.9049 9736.4131
221.8239 5077.7017
221.8688 4676.7642
239.8811 4687.5811
243.9095 4957.8809
255.8807 18197.5674
265.8252 5889.7036
266.0894 68218.7266
267.8844 5860.9453
283.8337 4756.1260
294.8507 8789.3232
312.0935 6591.0610


Name: 96215 (4-IMIDAZOLEACETATE)
RT: 0.670000
PUBCHEM_COMPOUND_CID: 96215
Precursor_type: [M-H]-
PrecursorMZ: 125.0357
Comment: 0.67_125.0357m/z
Formula: C5H6N2O2
Num Peaks: 2
81.0458 1240209.0430
81.0575 32076.1172

Name: 441476 (GALACTURONATE)
RT: 0.800000
PUBCHEM_COMPOUND_CID: 441476
Precursor_type: [M-H]-
PrecursorMZ: 193.0355
Comment: 0.80_193.0355m/z
Formula: C6H10O7
Num Peaks: 50
57.0351 3073.4682
59.0137 188004.3689
61.9885 3301.3954
71.0138 117465.0768
72.9931 221890.9497
73.0291 55761.3329
75.9372 27236.4583
81.0456 20430.0176
85.0295 109558.7730
86.9496 54094.4974
89.0245 91351.7665
89.9259 107984.1502
90.9234 165569.5998
90.9338 2407019.0027
90.9476 6047.0230
93.9471 349667.8854
94.9929 5514.2400
95.0139 15539.9931
101.0242 86713.3329
102.9337 3296368.8611
102.9467 5346.6675
103.0040 69291.0877
103.9541 4540.3457
105.9222 46839.4961
105.9471 282971.3281
105.9630 4187.8442
106.9290 38257.5881
107.9261 30087.1170
109.9419 32171.9750
113.0242 226564.8036
119.9262 579066.5521
119.9470 15407.0892
125.0357 10693.9423
130.9396 286300.6606
130.9621 3529.2809
131.0355 46250.9084
133.0136 36608.0046
146.9233 864016.5833
147.9214 1767415.1554
147.9420 5640.2754
148.8995 71004.7305
149.9369 538721.2604
149.9651 15965.8014
157.0157 9531.0611
164.8956 103322.4149
174.9193 43128.0794
175.0253 4007.0514
192.8918 8168.0597
192.9294 36987.9989
193.0352 102255.2070


Name: 89034 (METHIONINE SULFOXIMINE)
RT: 0.580000
PUBCHEM_COMPOUND_CID: 89034
Precursor_type: [M-H]-
PrecursorMZ: 179.0497
Comment: 0.58_179.0497m/z
Formula: C5H12N2O3S
Num Peaks: 28
60.9752 17453.4961
61.9705 222029.2813
62.9782 17643.3203
78.0019 1894253.7500
84.9907 32139.4902
88.9886 9544.3359
90.9243 16706.9043
90.9981 71892.0625
92.9284 9765.7998
100.0401 16782.1016
103.9420 9947.1182
118.9293 7249.4624
120.6607 6671.3555
122.9590 14664.5430
130.9933 7706.9658
134.8755 27813.3633
134.9152 8256.3838
134.9393 11140.6924
134.9879 291355.8750
150.9541 116746.7188
161.8846 9242.5664
162.8937 14728.6816
175.7436 7000.1577
178.8593 10585.4756
178.8931 26013.6074
178.9503 10514.5078
178.9790 88161.8828
179.0492 155267.5781

Name: 440014 (CIS-4-HYDROXY-D-PROLINE)
RT: 0.610000
PUBCHEM_COMPOUND_CID: 440014
Precursor_type: [M-H]-
PrecursorMZ: 130.0510
Comment: 0.61_130.0510m/z
Formula: C5H9NO3
Num Peaks: 17
57.0347 6010.6606
61.9882 13693.1631
66.0347 43671.9805
68.0505 46833.4375
70.2828 4310.3101
71.0138 46009.1797
73.0294 38783.0703
82.0297 24505.6660
84.0454 147046.8125
86.0247 4317.9609
99.9257 14174.2656
111.4192 4159.5918
112.0403 177341.8438
115.9204 5957.3906
128.0351 29867.1191
128.8711 39742.5605
130.0509 2841121.0820

Name: 440995 (LACTOSE)
RT: 0.640000
PUBCHEM_COMPOUND_CID: 440995
Precursor_type: [M+FA-H]-
PrecursorMZ: 387.1149
Comment: 0.64_387.1149m/z
Formula: C12H22O11
Num Peaks: 25
57.3072 4339.0781
59.0137 52212.9258
71.0138 58768.4648
73.0294 82483.2188
74.5278 3611.2195
81.0345 9173.7598
83.0138 16553.4863
85.0291 5044.6030
87.0086 9854.2490
89.0243 79949.6875
95.0137 5624.7266
97.0294 69977.5859
101.0244 144170.2656
113.0240 38037.6680
115.0398 18525.4668
119.0353 16545.9648
125.0248 10625.1709
130.6098 3852.1958
131.0343 6795.1431
143.0350 49985.6665
161.0456 188733.3682
161.0777 7760.9136
179.0561 103290.9844
221.0658 6647.8628
341.1089 5112.7935

Name: 9307 (3-METHOXYTYROSINE)
RT: 2.820000
PUBCHEM_COMPOUND_CID: 9307
Precursor_type: [M-H]-
PrecursorMZ: 210.0773
Comment: 2.82_210.0773m/z
Formula: C10H13NO4
Num Peaks: 32
57.4588 4109.4292
61.9880 7117.8525
72.0090 152927.9219
72.0185 4586.8052
74.0249 9833.9238
87.9250 8047.0229
90.9241 7695.0918
108.0219 10414.9512
117.0341 22122.1309
119.9239 4975.9834
122.0369 8968.4551
123.0452 71558.6563
124.0163 12695.9736
125.9421 7563.7070
134.0374 339086.6875
135.0450 299684.2813
135.0810 5838.2578
136.0525 34466.0781
137.0246 13708.7559
137.0593 7592.1611
149.0620 78425.0156
150.0294 8258.8809
150.0560 143179.0156
151.0627 16004.0615
163.9138 8570.3994
166.0862 13145.0654
176.0346 11318.9131
177.0425 5311.0347
192.0673 14718.0488
193.0506 552431.8340
209.8229 25997.8691
210.0771 2058635.5078

Name: 6076 (CYCLIC AMP)
RT: 2.840000
PUBCHEM_COMPOUND_CID: 6076
Precursor_type: [M-H]-
PrecursorMZ: 328.0456
Comment: 2.84_328.0456m/z
Formula: C10H12N5O6P
Num Peaks: 42
78.9590 390741.4258
80.9743 5611.1113
81.3245 1964.4263
90.9335 65665.9727
90.9979 2547.4043
96.9695 33768.6758
98.9566 8848.4702
102.9333 57087.2441
102.9481 3947.3457
107.0362 9852.6973
112.9865 6980.4192
114.9514 8828.6284
124.9361 4989.8047
126.9511 1913.7874
130.9416 2425.2886
134.0472 1933676.4558
134.9856 29154.7732
142.9465 16872.2744
146.4286 2145.6650
146.9233 130616.6563
146.9525 2660.2151
146.9615 11415.1162
148.9384 10891.0352
150.9543 4056.6960
153.9501 2923.4272
154.9467 24528.6377
162.9803 3588.2485
169.9458 4137.5068
170.9415 36975.1367
174.9543 36967.8447
178.9480 13086.4146
178.9784 3422.0684
192.9299 64832.8516
192.9906 40288.6990
197.9408 16295.8452
198.9361 109143.8438
255.8763 12850.5083
260.9148 3870.3313
272.8553 10579.9028
283.8772 2664.9646
299.8667 11309.9673
328.0454 2111769.6333


Name: 144 (5-HYDROXYTRYPTOPHAN)
RT: 2.710000
PUBCHEM_COMPOUND_CID: 144
Precursor_type: [M-H]-
PrecursorMZ: 219.0776
Comment: 2.71_219.0776m/z
Formula: C11H12N2O3
Num Peaks: 37
56.5773 2625.6963
59.4138 2017.3431
72.0092 35206.0288
74.0248 151911.1738
92.9290 1875.1128
99.9259 132774.8958
99.9381 1330.0237
116.9286 59519.1328
130.9440 2018.9620
132.0455 300014.8545
144.0456 436098.8296
146.0618 3543.7710
148.0778 4009.6946
154.9489 4912.7791
156.9275 2721.6287
157.0529 2893.9199
158.0611 82797.1086
158.0902 4528.5479
172.9240 23759.1631
173.0717 3501.3577
174.8640 214353.1563
174.9176 5480.5952
175.0876 62389.0659
175.1207 3383.5974
175.8618 437630.2188
189.8509 77210.9766
190.8490 75786.5625
190.9335 19565.1880
192.9292 12448.8296
193.8754 6049.6855
200.9207 10980.6738
202.0499 10741.7871
208.8613 5671.1609
218.8598 3687.0400
218.9289 7640.2966
218.9772 2052.8252
219.0778 576665.4460

Name: 6995182 (N-FORMYL-L-METHIONINE)
RT: 4.120000
PUBCHEM_COMPOUND_CID: 6995182
Precursor_type: [M-H]-
PrecursorMZ: 176.0388
Comment: 4.12_176.0388m/z
Formula: C6H11NO3S
Num Peaks: 29
51.5989 3167.0874
57.0345 9053.1260
60.8784 3404.1011
70.0297 25347.3193
82.0300 3823.1360
84.0455 272894.9258
98.0247 838585.2813
98.0363 18325.9590
99.9259 216597.2778
99.9384 2088.6038
115.9202 7086.6296
116.9285 122897.8162
118.9666 42980.7759
124.9395 3606.3364
128.0353 941284.5278
128.0579 5960.2588
132.0491 57844.6865
132.9425 7376.3455
138.5305 3324.5439
144.8952 3406.5911
145.8967 8491.8364
146.8999 13058.7681
146.9611 127905.4492
146.9853 5919.9775
147.9646 254602.4082
175.8624 131986.0996
175.9122 7042.2417
175.9611 52190.9941
176.0389 831583.6758


Name: 971 (OXALATE)
RT: 0.250000
PUBCHEM_COMPOUND_CID: 971
Precursor_type: [M-H]-
PrecursorMZ: 88.9882
Comment: 0.25_88.9882m/z
Formula: C2H2O4
Num Peaks: 10
50.9748 419.5742
60.9935 31022.7080
61.4994 410.0664
61.9965 3341.2489
64.6942 431.8961
68.2602 434.9620
72.1008 430.5047
72.9933 14156.9408
75.8768 402.9286
88.9882 26971.1875


Name: 112072 (ANSERINE)
RT: 0.550000
PUBCHEM_COMPOUND_CID: 112072
Precursor_type: [M-H]-
PrecursorMZ: 239.1151
Comment: 0.55_239.1151m/z
Formula: C10H16N4O3
Num Peaks: 39
58.0297 751591.6533
61.9882 12709.2705
70.0302 30742.5586
72.0098 18205.2500
87.0564 304190.1543
96.9602 2307.5574
101.9244 4001.1055
102.9564 5536.3862
103.9177 1744.7385
107.0621 13423.0840
121.9186 3769.0759
137.0728 10678.1777
142.9458 2150.3909
147.1355 8311.6055
147.9172 6440.8701
150.0651 8282.4443
151.0515 231771.4453
154.0608 25086.8408
166.0987 1007516.5156
168.0779 4021358.0547
170.9398 3717.1782
171.8653 8127.9199
176.9131 2454.7576
178.0982 43404.4414
181.8976 4763.5332
183.9123 38482.0977
192.8479 6929.9526
192.8835 19494.6855
193.9167 2230.9653
194.9254 2862.1802
195.1255 232760.8619
195.1592 5652.5376
210.8945 20181.4004
211.9211 2697.2019
218.7627 8704.9766
218.8049 9818.6035
238.8228 2354.6240
238.8719 91387.0771
239.1150 3878583.8594


Name: 3032849 (5-HYDROXYLYSINE)
RT: 0.520000
PUBCHEM_COMPOUND_CID: 3032849
Precursor_type: [M-H]-
PrecursorMZ: 161.0932
Comment: 0.52_161.0932m/z
Formula: C6H14N2O3
Num Peaks: 18
72.0454 11941.9844
73.1948 5000.3276
84.0453 6546.7466
97.0272 4943.9746
97.0401 8394.9121
99.9257 23859.9727
102.0564 9984.4023
113.0714 10838.0566
114.0561 13299.7871
115.0876 61111.0039
116.9271 10135.5889
125.0721 32146.2051
132.9812 15914.7705
141.0668 32525.5410
143.0828 99375.3828
159.0783 20678.4180
160.8926 287878.9141
161.0931 958632.1836

Name: 6274 (HISTIDINE)
RT: 0.560000
PUBCHEM_COMPOUND_CID: 6274
Precursor_type: [M-H]-
PrecursorMZ: 154.0623
Comment: 0.55_154.0623m/z
Formula: C6H9N3O2
Num Peaks: 24
67.0302 24421.1777
72.0089 41472.6094
74.0246 7205.1699
79.4570 8123.4736
80.0378 27067.4414
81.0458 38261.9297
93.0457 312042.8125
96.9407 26283.9688
96.9599 21785.5586
98.9568 47374.0938
100.3230 7408.7690
108.0566 59263.2422
109.0411 39338.7930
110.0724 138239.6250
110.9840 34907.3398
113.9547 15180.5811
114.9517 67614.7500
118.0407 23205.1797
136.0519 103706.6797
137.0355 412627.6563
141.9497 14414.4111
142.9467 62130.6094
153.9151 18952.3789
154.0622 1587216.6855

Name: 99289 (ALLOTHREONINE)
RT: 0.600000
PUBCHEM_COMPOUND_CID: 99289
Precursor_type: [M-H]-
PrecursorMZ: 118.0510
Comment: 0.60_118.0510m/z
Formula: C4H9NO3
Num Peaks: 7
72.0092 149844.0781
74.0248 340079.0938
100.9124 14887.8916
100.9257 82161.3828
117.9288 781118.1406
117.9491 21151.5586
118.0512 115828.3281

Name: 439918 (GUANIDINOSUCCINATE)
RT: 0.650000
PUBCHEM_COMPOUND_CID: 439918
Precursor_type: [M-H]-
PrecursorMZ: 174.0521
Comment: 0.65_174.0521m/z
Formula: C5H9N3O4
Num Peaks: 43
67.6084 2345.7148
71.0139 21114.0234
85.9467 40883.4688
86.0250 3031.6499
86.9764 26520.5381
88.0404 475859.9170
96.0089 2342.9072
96.9931 3907.7520
99.9258 208845.4922
99.9380 2731.8647
100.1833 2851.8633
100.9342 62413.6641
100.9494 4277.7324
101.9536 4524.8882
102.9713 65076.0977
112.0510 9473.0645
113.0360 10589.4688
114.0196 107271.7275
115.0037 62801.7456
115.9208 114197.7617
116.9288 167124.6606
116.9461 8591.9504
117.9472 20656.4072
118.9663 434373.5156
118.9819 5638.4785
118.9870 3328.2957
129.9355 16225.4912
129.9506 7352.2603
130.0624 18457.0840
130.9440 32518.9600
130.9666 77002.7266
132.0303 612784.8164
138.0312 7862.6699
139.0121 2773.2046
145.9447 12865.4780
146.9612 3516982.5000
148.9672 4228.7324
156.0417 82442.5103
156.0639 1948.6312
157.0243 4284.0239
158.8935 2861.3379
160.9774 8289.4060
174.0521 200949.4033

Name: 5280353 (BILIVERDIN)
RT: 12.810000
PUBCHEM_COMPOUND_CID: 5280353
Precursor_type: [M-H]-
PrecursorMZ: 581.2415
Comment: 12.81_581.2415m/z
Formula: C33H34N4O6
Num Peaks: 23
55.0660 4040.1938
59.0137 9737.1797
67.4246 3943.3445
68.5697 4116.1021
118.9017 4227.9170
120.0823 5036.8398
121.0523 4800.3276
122.0606 23602.1797
160.0661 12008.4570
213.1034 50247.2344
219.0201 5085.2563
239.1189 228226.3428
239.1761 6236.5493
241.1346 85546.5938
242.1398 8139.3975
245.1748 5299.1318
253.1350 16414.2910
285.1244 480895.7461
352.9814 7206.1162
396.9975 5290.2773
493.2583 16505.9902
537.2523 53222.1094
538.2580 10528.8057


Name: 31252 (2,5-DIMETHYLPYRAZINE)
RT: 11.190000
PUBCHEM_COMPOUND_CID: 31252
Precursor_type: [2M-H]-
PrecursorMZ: 215.1290
Comment: 11.19_215.1290m/z
Formula: C6H8N2
Num Peaks: 35
53.1160 1829.6011
74.4716 1910.6301
76.2847 1806.6630
79.9569 8470.5144
90.9334 4166.2495
99.9252 4543.5847
100.9336 9208.1641
102.9334 2550.0647
111.2306 2084.3862
114.9513 5824.3411
115.9197 7550.4709
116.9278 7979.1589
116.9959 2514.1494
125.0969 2570.4456
125.8728 2178.1978
128.9961 7976.8799
129.0920 5949.7693
130.9442 8330.3669
142.9463 3932.7307
144.9924 6188.7764
146.9592 3049.8164
153.1286 161343.0991
153.1524 2967.9963
153.9144 4278.0811
155.2471 2001.3470
166.9916 19252.8506
171.1397 2984.4802
171.8663 39822.7363
186.9998 2312.5569
188.0241 2185.9207
194.9867 26335.2861
197.1184 263223.5508
214.9233 2466.8108
214.9951 65880.1211
215.1289 573608.7109


Name: 123727 (CDP-ETHANOLAMINE)
RT: 0.710000
PUBCHEM_COMPOUND_CID: 123727
Precursor_type: [M-H]-
PrecursorMZ: 445.0536
Comment: 0.71_445.0536m/z
Formula: C11H20N4O11P2
Num Peaks: 17
78.9591 319679.1250
87.0101 4657.5986
96.9696 53037.4258
110.0356 10032.9434
138.9806 5866.2725
158.9253 49902.0352
174.9813 8743.5635
183.9599 4497.4683
201.9676 105287.5703
272.9581 35482.9727
304.0329 7947.4380
304.3255 4049.9387
322.0471 38087.9805
384.0007 62815.8477
384.9929 4295.0859
402.0475 4842.8462
445.0537 292743.1230

Name: 5816 (EPINEPHRINE)
RT: 0.740000
PUBCHEM_COMPOUND_CID: 5816
Precursor_type: [M-H]-
PrecursorMZ: 182.0824
Comment: 0.74_182.0824m/z
Formula: C9H13NO3
Num Peaks: 33
52.5804 1610.4563
52.9640 1626.1033
54.5033 2338.5154
58.5805 1790.0732
75.3356 2522.6838
89.9254 2663.6648
92.9933 5168.3763
94.9173 2849.1313
105.9368 6692.9128
108.8990 8088.7288
109.0290 5719.4692
112.9862 8160.4756
113.9892 11989.4097
114.9344 10645.3542
122.0374 142486.9531
123.0437 5234.6147
124.8932 2276.0256
128.9679 2551.2595
135.0444 5781.2056
136.8949 31276.9971
136.9839 11473.7578
137.0240 4213.7788
137.9872 15604.6348
138.9063 3320.9128
138.9513 12551.4082
149.0483 72837.4990
153.9507 5753.4114
154.0279 3370.9683
154.9465 39303.8281
162.0547 9864.1143
164.0717 1098807.8882
181.9798 9685.7495
182.0825 174228.7441

Name: 91528 (3,4-DIHYDROXYPHENYLGLYCOL)
RT: 1.380000
PUBCHEM_COMPOUND_CID: 91528
Precursor_type: [M-H2O-H]-
PrecursorMZ: 151.0402
Comment: 1.38_170.0580n
Formula: C8H10O4
Num Peaks: 33
71.0135 2752.4541
74.5412 1941.6390
75.0088 35860.6064
81.0345 3012.6108
89.0256 1849.2728
90.9238 2910.7815
91.9204 2625.6995
91.9321 7144.6841
92.9289 41912.7754
93.9188 2007.0037
93.9470 2903.5894
94.9267 30508.9346
95.0499 5789.4624
104.9292 15291.8877
105.0345 11275.8682
106.9270 10615.8623
106.9929 11929.9023
108.0218 5107.9951
109.0299 2568.5469
112.3497 1971.0912
121.0301 5614.4951
122.0374 115087.1309
122.0588 2703.7917
122.9589 3637.8569
123.0452 620159.3716
130.9923 10616.6357
133.0300 3273.6890
134.9330 1808.8513
139.0406 2719.7527
149.0245 3692.4878
150.0317 3731.2346
150.9165 3919.1794
151.0401 1460135.7393

Name: 91528 (3,4-DIHYDROXYPHENYLGLYCOL)
RT: 1.380000
PUBCHEM_COMPOUND_CID: 91528
Precursor_type: [M-H]-
PrecursorMZ: 169.0507
Comment: 1.38_170.0580n
Formula: C8H10O4
Num Peaks: 37
51.3376 1125.8131
63.8947 1256.7227
75.8313 1155.5305
76.2282 1195.3823
78.9863 1321.2562
85.8760 1295.8940
86.5277 1184.7010
88.1377 1153.2424
93.0346 1756.6224
94.9454 5474.7756
94.9812 8442.6628
95.0503 4340.6429
96.9613 45245.4912
100.0752 1372.9406
100.9853 4657.3034
101.0222 1229.8123
101.4675 1427.6369
101.9224 1308.2563
105.0343 3873.4688
108.0223 1926.4041
112.9566 33541.8786
112.9852 3754.4920
115.8675 1545.8345
122.0375 51351.2754
122.9406 5436.9896
123.0453 342589.7489
123.0654 1093.2874
124.9570 25138.3895
133.0302 1640.4767
140.9514 73094.2064
150.9917 7469.2044
151.0402 898747.5301
151.8958 1329.3411
168.8905 3093.2332
168.9472 1460.5503
168.9939 1555.9683
169.0506 11371.1266

Name: 7018721 (OPHTHALMATE)
RT: 1.440000
PUBCHEM_COMPOUND_CID: 7018721
Precursor_type: [M-H]-
PrecursorMZ: 288.1203
Comment: 1.44_288.1203m/z
Formula: C11H19N3O6
Num Peaks: 46
55.2007 1300.6883
57.4511 1355.1638
74.0247 48448.2227
77.7487 1197.7148
82.0295 4517.4427
86.7695 1287.6000
98.0602 2413.6611
100.0403 18046.2904
102.0559 15997.7536
110.7780 1337.3372
112.0403 12745.4847
115.0876 30782.4974
123.0568 1888.9824
125.0714 10031.2244
127.0518 3838.2708
128.0352 58693.8685
139.0876 3618.8551
141.0669 27917.9652
142.5859 1151.5916
145.0623 6795.3363
146.0453 11289.1118
146.9621 1297.0685
151.0888 14637.3040
152.0734 1440.3381
159.0517 1633.6911
159.0777 68726.7611
167.0458 17206.1146
169.0977 14217.9354
174.9567 5004.5854
175.8617 98653.8320
185.0563 6767.3418
185.9127 1720.2858
190.8492 9297.6235
191.8439 4345.9487
195.0777 104342.7627
202.9111 1421.6519
208.1085 10636.0076
213.0884 20588.0885
219.8519 32743.0630
220.9232 1952.2671
226.1202 49459.4974
226.1641 1439.2064
246.7742 1351.3642
270.1094 119381.6699
271.1149 2968.7028
288.1203 238129.9382

Name: 440864 (2-HYDROXYBUTYRATE)
RT: 2.440000
PUBCHEM_COMPOUND_CID: 440864
Precursor_type: [M-H]-
PrecursorMZ: 103.0401
Comment: 2.44_103.0401m/z
Formula: C4H8O3
Num Peaks: 16
57.0344 53833.8877
58.9585 945.8528
59.0137 3439.9127
70.9428 776.4357
74.9388 1055.0668
87.9259 6454.1382
89.9257 61298.2998
90.9335 12446.6584
91.1433 834.1831
91.4416 903.7994
99.9246 3488.5349
100.9259 12585.8816
101.0247 1157.8749
101.9244 12376.5120
102.9319 60459.8340
103.0401 121103.3438


Name: 24154 (GALACTOSAMINE)
RT: 0.540000
PUBCHEM_COMPOUND_CID: 24154
Precursor_type: [M+FA-H]-
PrecursorMZ: 224.0777
Comment: 0.54_224.0777m/z
Formula: C6H13NO5
Num Peaks: 26
52.5674 3357.2507
59.0136 35268.6563
71.0135 7396.4287
84.9904 5690.1060
88.9882 17277.4336
89.0242 18085.9063
98.0248 82477.9531
100.0403 66047.9453
101.0244 30737.0977
112.0410 6967.2837
119.0351 17059.3770
133.9419 27094.4609
155.8937 33453.8691
156.9747 4280.7505
160.0632 4852.9443
175.8872 6566.0908
177.9010 24020.2070
177.9229 5792.2344
177.9350 8529.6396
180.8695 5585.5571
195.8687 6816.4629
195.9274 4742.8633
196.8660 52904.9609
196.9167 4751.2466
198.8809 12004.6162
210.7743 4778.6689

Name: 36143 (4-HYDROXY-L-PHENYLGLYCINE)
RT: 0.640000
PUBCHEM_COMPOUND_CID: 36143
Precursor_type: [M-H]-
PrecursorMZ: 166.0511
Comment: 0.64_166.0511m/z
Formula: C8H9NO3
Num Peaks: 14
61.9881 20804.0332
75.0081 7106.3374
77.9524 8896.7598
80.0517 6954.1875
89.9255 14601.7813
90.9240 63888.5605
96.9594 9188.6445
96.9885 16987.4336
98.9557 24542.0781
107.9274 7109.9360
109.1170 6360.3936
119.9193 8954.2314
138.9296 63240.7695
166.0508 213632.2969

Name: 439531 (STACHYOSE)
RT: 0.720000
PUBCHEM_COMPOUND_CID: 439531
Precursor_type: [M-H]-
PrecursorMZ: 665.2161
Comment: 0.72_666.2233n
Formula: C24H42O21
Num Peaks: 50
59.0137 467369.2813
71.0138 374783.9375
72.9922 7977.2202
73.0294 63631.8594
83.0138 15101.6064
85.0294 50104.9336
87.0087 185232.7031
87.0448 14399.9541
89.0244 639385.0000
89.0350 12821.2158
95.0142 27034.1309
97.0292 31450.2246
99.0088 11168.5000
99.0448 8864.0225
101.0244 592990.0625
107.0352 18701.4922
113.0243 271804.1875
113.0431 9786.3408
115.0395 16734.8750
119.0347 165995.8438
125.0246 94332.8203
129.0182 7434.3262
131.0349 58343.8438
141.0198 15619.5635
143.0351 246777.8906
149.0463 30486.4902
161.0456 179984.3281
161.0748 7486.0674
167.0339 10796.2070
179.0563 858011.1396
179.0848 9720.5723
185.0421 9064.2314
203.0559 97217.6719
221.0666 241369.6250
235.0826 16660.1660
263.0783 15048.0742
281.0882 41765.4180
287.0769 7365.7251
305.0891 15197.4355
323.0980 70837.4453
341.1091 403208.9102
383.1196 1396926.7031
407.1245 14401.1846
413.1291 15724.1982
425.1333 47867.6328
443.1404 158691.5625
467.1391 8711.2715
485.1511 214021.5938
503.1569 24039.8320
665.2150 790444.9727

Name: 439531 (STACHYOSE)
RT: 0.720000
PUBCHEM_COMPOUND_CID: 439531
Precursor_type: [M+FA-H]-
PrecursorMZ: 711.2227
Comment: 0.72_666.2233n
Formula: C24H42O21
Num Peaks: 50
59.0137 282216.0000
71.0138 221031.3750
71.0224 6960.1694
71.0493 5767.2388
73.0297 38022.2461
81.0337 9201.8076
85.0290 25503.0547
87.0087 115898.5000
87.0450 8183.2471
89.0244 416058.3750
95.0133 16380.6016
97.0289 19259.3691
99.0457 6129.2471
101.0243 379808.3438
107.0343 11031.1240
113.0083 9339.6768
113.0244 171960.9531
115.0376 7692.0542
119.0348 98345.7656
125.0244 64849.0781
131.0345 36683.4453
141.0189 11261.0049
143.0350 179924.3438
149.0448 21277.6543
161.0457 119003.7500
163.6604 6334.0327
179.0562 610098.4946
185.0430 7296.6987
203.0555 63347.3359
221.0666 159599.6406
235.0835 10893.0400
251.0740 8567.8213
263.0760 16555.2168
281.0876 30842.6309
305.0893 7817.0435
323.0985 43708.7734
341.1090 268291.9063
365.1004 6577.1655
383.1196 981272.7559
407.1101 5909.0098
413.1270 11049.9736
425.1336 35761.1836
443.1405 105581.9609
485.1519 146596.3438
485.3035 8263.0811
489.0722 6393.0459
503.1641 30422.6055
507.7348 7500.5181
665.2157 871707.6875
666.2275 31968.4082


Name: 5311498 (Vitamin B12)
RT: 6.160000
PUBCHEM_COMPOUND_CID: 5311498
Precursor_type: [M+FA-H]-
PrecursorMZ: 1399.5646
Comment: 6.16_1354.5687n
Formula: C63H88CoN14O14P
Num Peaks: 22
96.9696 80473.2344
124.1263 6760.6812
136.0159 15529.5928
145.0775 44070.3281
154.0268 21825.3438
192.9909 13970.7861
339.0757 1510284.9922
357.0863 180323.5000
414.1409 54920.9883
903.3467 10190.5098
920.3808 22501.2656
1050.4186 15422.5645
1068.4523 11503.4473
1198.4847 107770.3438
1199.4465 13917.9375
1212.5444 12708.9873
1255.5214 21268.1250
1270.5588 23308.0137
1311.5675 11795.7920
1326.6561 33256.6719
1328.5640 1739735.4219
1330.0930 6827.5220


Name: 65249 (N-ACETYLSERINE)
RT: 0.860000
PUBCHEM_COMPOUND_CID: 65249
Precursor_type: [M-H]-
PrecursorMZ: 146.0460
Comment: 0.86_146.0460m/z
Formula: C5H9NO4
Num Peaks: 29
57.0342 4042.4563
58.9587 9452.3647
61.9882 7050.3584
63.1313 1710.5505
70.0299 23052.4048
72.0456 16822.3782
74.0247 167732.5664
74.0323 1468.5513
84.0454 73153.9590
87.9249 15631.7822
89.9257 12399.6577
90.9334 66170.1387
98.0247 52183.8867
99.9258 73530.3594
100.9345 1847.1594
101.9331 18588.2393
102.9333 30538.2109
102.9487 48550.3789
104.0351 24281.5391
105.9209 2309.3667
115.9205 7017.1560
116.0352 88546.1230
116.0547 2613.8679
116.9202 36389.2295
118.9661 29701.6611
123.7417 2124.2661
130.9402 6351.3269
145.8981 2199.6748
146.0459 59984.8281


Name: 72361 (GLUCOSAMINE 6-SULFATE)
RT: 0.580000
PUBCHEM_COMPOUND_CID: 72361
Precursor_type: [M-H]-
PrecursorMZ: 258.0289
Comment: 0.58_258.0289m/z
Formula: C6H13NO8S
Num Peaks: 14
64.1816 13237.4316
67.4401 13611.1699
80.9658 21995.4805
96.9601 1042670.0625
102.9488 54414.1953
138.9708 1454402.8477
146.9396 88125.7422
168.9816 243145.1094
190.9315 23811.0273
198.9920 3929663.2891
211.9514 19563.4629
218.9307 26484.5879
240.0205 47594.0000
258.0291 5604219.3438


Name: 7027 (GLUCONOLACTONE)
RT: 0.860000
PUBCHEM_COMPOUND_CID: 7027
Precursor_type: [M+FA-H]-
PrecursorMZ: 223.0461
Comment: 0.73_223.0461m/z
Formula: C6H10O6
Num Peaks: 35
57.0345 3764.2771
70.2371 2058.5376
71.0138 2523.8762
83.3872 1841.7427
85.0298 4644.4155
91.9306 2185.8757
99.0082 15127.3530
99.9257 4507.8750
129.0194 87354.7793
129.0413 3320.9194
132.9441 16361.4668
133.9421 28769.3018
154.8958 2516.6731
155.8938 14287.8022
158.9037 2275.6650
159.0301 9661.0889
162.8934 10260.7979
164.8957 2833.8848
174.9134 2146.3223
176.9128 53212.2539
177.0397 23462.5664
177.9010 27233.2227
177.9347 7051.6262
178.8578 8568.4167
179.9164 7459.3962
193.8450 2722.5029
194.8754 16638.9041
194.9254 93748.0930
195.8714 5433.2710
196.8871 7493.2522
204.9124 11714.1699
210.8797 2165.3652
212.8767 6247.9863
222.8723 2295.7727
222.9218 11690.7402

Name: 70615 (MONOETHYLMALONATE)
RT: 2.750000
PUBCHEM_COMPOUND_CID: 70615
Precursor_type: [M-H]-
PrecursorMZ: 131.0351
Comment: 2.75_131.0351m/z
Formula: C5H8O4
Num Peaks: 12
52.6363 3718.9082
69.0344 9358.2178
87.0452 116850.9878
90.9339 4824.4600
99.9260 8733.0488
100.9338 146355.5752
113.0246 12514.5840
113.1702 3725.4146
113.9265 22105.3379
115.9206 206620.4082
130.9926 48573.1563
131.0347 33505.7773


Name: 5754 (CORTISOL)
RT: 10.560000
PUBCHEM_COMPOUND_CID: 5754
Precursor_type: [M+FA-H]-
PrecursorMZ: 407.2080
Comment: 10.56_407.2080m/z
Formula: C21H30O5
Num Peaks: 35
64.4072 5365.0928
72.3968 5109.0015
85.6672 6457.2393
86.6954 1964.4420
102.9491 2333.6133
112.9853 9621.2236
114.9373 11116.0107
121.3290 2111.1760
125.0608 167206.4790
137.0620 6917.0688
146.9384 3889.8611
158.9270 10900.1152
167.4747 1928.0815
189.0924 125803.6934
202.9169 4455.0479
218.8447 9125.7129
239.7194 1841.7056
264.5132 2128.6672
282.1267 184027.6963
283.1324 21155.0508
297.1500 592484.0566
301.1794 82060.3179
313.1753 2598.1733
313.1811 22323.3711
315.1603 187576.0059
329.1762 190556.7666
331.1918 3901870.0918
343.1914 93489.6521
361.1978 3091.3657
361.2033 56532.0703
363.1806 21767.7480
363.1870 2431.8347
407.0048 2075.8928
407.0170 6844.3535
407.2077 183503.6504

Name: 12284 (METHYGLUTARATE)
RT: 4.430000
PUBCHEM_COMPOUND_CID: 12284
Precursor_type: [M-H]-
PrecursorMZ: 145.0507
Comment: 4.43_145.0507m/z
Formula: C6H10O4
Num Peaks: 19
56.4717 2253.1865
61.5917 4392.9827
62.0561 1889.7251
81.5230 2380.0313
83.0499 53683.5179
96.5226 1738.2559
99.9259 61492.0911
100.9336 1028182.1042
101.0599 657612.5247
101.9484 2061.9154
109.8146 2072.6326
115.9024 4658.3662
115.9206 498947.6064
115.9388 9415.3167
127.0400 19299.5335
130.7831 2446.3289
137.6115 2874.6299
144.9231 2816.0482
145.0512 223617.3626

Name: 135 (4-HYDROXYBENZOATE)
RT: 4.800000
PUBCHEM_COMPOUND_CID: 135
Precursor_type: [M-H]-
PrecursorMZ: 137.0244
Comment: 4.80_137.0244m/z
Formula: C7H6O3
Num Peaks: 9
61.9460 1843.2953
74.9802 1962.9824
93.0345 1014911.3462
108.8997 37249.0842
117.4525 1807.2606
136.3927 3521.1868
136.8631 73854.1289
136.8925 59842.7637
137.0243 243663.4688

Name: 643460 (SORBATE)
RT: 4.800000
PUBCHEM_COMPOUND_CID: 643460
Precursor_type: [M-H2O-H]-
PrecursorMZ: 93.0345
Comment: 4.80_93.0345m/z
Formula: C6H8O2
Num Peaks: 4
92.9289 115162.9766
92.9425 4969.0674
92.9960 15214.8125
93.0345 354036.6563

Name: 5699 (XANTHURENATE)
RT: 5.230000
PUBCHEM_COMPOUND_CID: 5699
Precursor_type: [M-H]-
PrecursorMZ: 204.0303
Comment: 5.23_204.0303m/z
Formula: C10H7NO4
Num Peaks: 33
50.3177 1170.8123
61.2843 1172.2701
66.9637 1386.8882
75.0090 3981.0682
91.9541 1188.1259
99.9258 29359.0469
100.9351 16486.5703
105.9589 1454.1803
113.9419 2139.7775
114.9392 1569.4997
115.9206 27439.5514
116.0508 20654.4941
116.9279 19818.3530
129.9367 15670.6927
130.9670 1528.0780
144.9238 10093.5091
152.9960 1222.2394
157.9338 10654.6445
158.9513 78652.4531
159.8934 9251.6056
160.0404 707491.0957
160.8909 11033.8457
160.9673 8576.6737
175.9136 2682.9881
175.9417 14053.3363
176.8972 8075.2718
176.9728 3383.4961
178.9282 1409.9323
187.3349 1430.4188
193.9307 9755.6328
194.9256 4458.3939
203.8453 1403.8317
204.0304 191125.3507


Name: 444266 (MALEATE)
RT: 1.300000
PUBCHEM_COMPOUND_CID: 444266
Precursor_type: [M-H]-
PrecursorMZ: 115.0037
Comment: 1.30_115.0037m/z
Formula: C4H4O4
Num Peaks: 18
58.5500 704.3933
62.7932 798.5198
68.9952 6749.9464
71.0138 204389.5156
71.0209 1943.5489
82.5807 776.9659
92.2409 722.5861
94.0813 891.1951
94.6935 828.3496
96.4716 758.8319
96.9412 14280.9543
97.2742 715.2050
97.9312 108220.1484
99.9260 14799.9018
108.5629 713.0902
114.9342 1068900.0875
114.9513 127578.0813
115.0031 30008.0484

Name: 105074 (PREGNENOLONE SULFATE)
RT: 12.460000
PUBCHEM_COMPOUND_CID: 105074
Precursor_type: [M-H]-
PrecursorMZ: 395.1903
Comment: 12.46_395.1903m/z
Formula: C21H32O5S
Num Peaks: 34
54.2459 4540.0905
56.3464 1252.0526
75.4061 4763.4505
79.9575 33105.2962
95.9446 4021.7445
96.9600 6115147.3965
102.9112 2120.3488
102.9480 2630.9847
112.0554 5778.7949
146.9009 2962.3109
146.9377 13741.6387
174.9551 2522.5516
190.9293 11868.3040
192.5155 1510.1914
218.8781 8185.9818
218.8950 8634.3861
226.9938 1414.8223
266.9906 1750.2583
268.9828 1499.6833
274.9947 1316.6357
278.9834 4493.3086
288.9954 1687.5993
294.9898 1425.3994
306.9807 2642.9359
314.9962 11538.7988
330.9811 1870.6592
334.9849 10928.0273
334.9927 6938.5625
354.9846 9851.3210
354.9949 6814.0117
374.9918 11610.6673
374.9992 9239.0182
395.0006 10999.6479
395.1903 9831388.7786

Name: 3845 (KYNURENATE)
RT: 5.400000
PUBCHEM_COMPOUND_CID: 3845
Precursor_type: [M-H]-
PrecursorMZ: 188.0355
Comment: 5.40_188.0355m/z
Formula: C10H7NO3
Num Peaks: 24
56.9634 4252.6509
79.5383 3338.1582
84.9383 5469.3184
98.9383 5916.7266
99.9254 23148.7148
100.9139 9965.2510
100.9378 9382.0835
100.9533 44770.1602
114.9082 6564.7300
115.9207 21617.6992
118.8341 4436.6162
129.8663 3945.5691
131.8819 3708.9451
132.9183 21512.1504
142.9438 5300.0781
143.8993 77609.7871
144.0455 581381.0527
144.9199 6655.6895
144.9433 17018.7949
159.0360 5183.6914
159.8938 96274.8750
160.9188 7471.4106
182.4308 3688.0066
188.0356 49141.1758

Name: 7991 (PENTANOATE)
RT: 9.140000
PUBCHEM_COMPOUND_CID: 7991
Precursor_type: [2M-H]-
PrecursorMZ: 203.1289
Comment: 9.14_203.1289m/z
Formula: C5H10O2
Num Peaks: 23
99.9258 21903.5059
100.9340 8921.5332
112.9395 4856.1787
114.9386 260079.4063
115.9207 12780.8828
116.9285 7087.0933
116.9961 12127.3262
127.1137 4682.2813
129.9365 7220.4014
140.9612 4448.3662
156.9553 26811.5176
158.8940 6931.1226
158.9286 25597.9453
159.9476 3786.1252
171.1026 311987.0811
174.8857 4151.1313
174.9200 12161.0078
175.9398 5015.3350
182.9886 15813.0000
184.9501 23027.8730
192.9298 13560.4736
202.9968 7670.0732
203.0353 11245.8203


Name: 179 (ACETOIN)
RT: 2.770000
PUBCHEM_COMPOUND_CID: 179
Precursor_type: [M-H]-
PrecursorMZ: 87.0452
Comment: 2.77_87.0452m/z
Formula: C4H8O2
Num Peaks: 5
62.2118 3177.2417
65.6095 3213.5566
68.1583 2802.1333
87.0091 30860.5898
87.0452 117194.2422

Name: 439616 (MANDELATE)
RT: 5.160000
PUBCHEM_COMPOUND_CID: 439616
Precursor_type: [M-H]-
PrecursorMZ: 151.0402
Comment: 5.16_151.0402m/z
Formula: C8H8O3
Num Peaks: 50
51.3542 166.2884
60.9201 161.4988
63.3893 161.8225
67.7771 168.9810
70.2408 164.4837
70.9132 165.0595
75.0098 807.1764
78.0784 160.6453
79.9577 180.1026
80.9645 5264.2132
89.3993 179.5519
90.9230 15564.2533
90.9348 218.2769
91.9201 1594.2098
91.9312 14268.1352
92.9290 49968.5837
92.9413 210.8278
93.0341 174.9599
93.9183 6508.9799
93.9465 9278.4310
94.9265 34998.6337
103.9322 4371.8361
104.1414 189.0742
104.9286 21605.3911
106.9276 24111.3446
106.9558 493.8871
106.9926 13169.3420
107.0499 61855.0783
107.0653 630.4487
107.9259 6641.0454
107.9625 249.2088
118.8988 843.0052
119.9255 700.4808
120.9291 397.2391
121.0298 4420.7524
122.9561 10304.2404
124.6241 187.5546
130.8803 169.4567
130.9924 233688.1246
131.0112 1024.3921
132.2575 172.4020
132.9345 3534.5126
134.9314 1407.9048
136.0167 445.4471
140.7895 181.1506
150.9166 5092.3434
150.9803 183.5468
151.0029 1272.1110
151.0106 1400.0577
151.0401 119046.1551

Name: 802 (INDOLE-3-ACETATE)
RT: 7.710000
PUBCHEM_COMPOUND_CID: 802
Precursor_type: [M-H]-
PrecursorMZ: 174.0561
Comment: 7.71_174.0561m/z
Formula: C10H9NO2
Num Peaks: 37
61.5077 4951.2124
72.3949 5904.1455
79.9577 21523.0879
80.8931 5215.4731
84.9387 16869.7012
85.9469 44914.4023
86.9768 26566.7754
90.9719 8483.7002
97.9300 5948.3291
99.9259 336619.0625
100.9345 66436.3828
101.9409 12047.2529
102.9714 112077.9453
112.0849 12427.3330
115.9207 124267.4688
116.9288 292803.9775
116.9439 5740.8906
118.9663 1391532.2500
128.0499 13192.4160
128.9289 8979.6260
129.8802 10337.5205
129.9367 23612.8184
130.0662 296570.7832
130.0892 9763.9844
130.9449 11166.0244
130.9661 83984.0703
132.9819 26593.7637
143.8993 12023.4531
144.8983 10556.3350
146.8595 5896.9580
146.9612 11091091.0000
148.9654 24647.8457
154.9930 9192.8906
157.0875 7991.9551
160.9771 327841.8438
173.9102 9844.8330
174.0554 15455.0850


Name: 743 (GLUTARATE)
RT: 2.780000
PUBCHEM_COMPOUND_CID: 743
Precursor_type: [M-H]-
PrecursorMZ: 131.0350
Comment: 2.77_131.0350m/z
Formula: C5H8O4
Num Peaks: 16
50.8164 1050.7947
66.3949 3068.8473
69.0346 44586.4811
87.0451 591792.2057
87.0548 8003.3807
90.9338 3230.1901
94.2337 1332.7048
96.3752 3524.8333
100.9336 161818.9886
100.9494 3531.6860
113.0244 62920.0080
113.9259 19230.1693
115.9209 181524.5347
130.9442 4671.3608
130.9932 46341.5000
131.0350 167664.1914

Name: 66141 (N-ACETYLPROLINE)
RT: 3.950000
PUBCHEM_COMPOUND_CID: 66141
Precursor_type: [M-H]-
PrecursorMZ: 156.0667
Comment: 3.95_156.0667m/z
Formula: C7H11NO3
Num Peaks: 21
60.7000 1917.8518
66.3751 1719.8510
88.0039 1983.7067
88.9881 1937.1078
89.0241 14239.1279
96.9601 29774.7578
98.9568 2022.5789
99.9566 6672.9590
100.9521 2072.7637
110.9324 7595.3499
112.9402 3255.9854
112.9729 2231.9033
114.0559 842937.3164
114.9518 4050.3879
115.9505 18619.4523
128.2483 1825.2034
128.9666 10154.7969
142.0978 1756.1863
143.9470 14558.3306
155.8929 74263.7617
156.0666 138494.2930

Name: 1549111 (CAFFEATE)
RT: 5.760000
PUBCHEM_COMPOUND_CID: 1549111
Precursor_type: [M-H]-
PrecursorMZ: 179.0351
Comment: 5.76_179.0351m/z
Formula: C9H8O4
Num Peaks: 48
53.8221 605.8409
57.3890 591.4976
59.3666 617.8697
65.0931 698.2872
72.1977 613.3775
74.5260 775.2069
75.2388 664.4930
84.9906 59610.1250
86.8382 1073.8429
90.7988 645.3167
90.9343 698.0767
90.9700 659.4333
90.9981 109904.3828
91.0106 1314.7700
93.4644 713.0208
99.9253 12603.1538
103.3128 641.3599
103.9422 1316.9387
105.7359 960.4097
106.9656 919.4127
107.0501 7523.1890
110.9755 18451.8590
115.9206 686.9229
116.9295 1531.8062
122.9593 31189.2562
125.6400 607.6016
130.9934 3475.3537
131.4571 605.8128
134.0376 13187.2264
134.8761 13140.1777
134.9502 671.4427
134.9682 4173.0366
134.9889 430267.4912
135.0452 1624255.7760
135.0640 15176.1735
135.9128 1891.8403
136.0711 2006.8351
148.9004 6904.3553
150.9542 224901.1688
150.9835 3950.3682
153.2569 1128.3197
155.9400 1016.4951
178.8592 4509.7553
178.9070 25946.4883
178.9501 13782.3454
178.9772 85458.4557
178.9831 43335.7839
179.0350 748733.9106

Name: 9305 (3,5-DIIODO-L-TYROSINE)
RT: 6.370000
PUBCHEM_COMPOUND_CID: 9305
Precursor_type: [M-H]-
PrecursorMZ: 431.8604
Comment: 6.37_431.8604m/z
Formula: C9H9I2NO3
Num Peaks: 23
53.3688 2232.5991
59.7050 2452.2310
63.6275 1723.1385
70.9315 1849.6622
91.9882 2809.6226
92.0046 2287.2129
126.9051 2720228.8438
130.1692 2522.4551
169.1066 1861.9489
244.9477 75948.6135
248.3712 1985.8840
259.9578 208138.3057
310.4139 2112.5442
314.0754 1996.0951
344.8271 40013.5508
357.8352 65930.0342
358.8426 6608.5527
370.8442 288188.3438
389.8233 12437.6758
390.6500 3069.2285
391.7881 2828.7407
414.8359 12501.9678
431.8606 596260.0134

Name: 74839 (N-ACETYLPHENYLALANINE)
RT: 7.250000
PUBCHEM_COMPOUND_CID: 74839
Precursor_type: [M-H]-
PrecursorMZ: 206.0824
Comment: 7.25_206.0824m/z
Formula: C11H13NO3
Num Peaks: 29
58.0235 24683.1445
58.0296 328860.0078
63.4276 2257.2021
68.5506 12350.2744
70.0298 196184.4453
70.0390 2090.7163
72.0091 29170.8940
75.0032 5455.3433
81.0785 11701.6016
91.0552 393580.4819
91.0684 4440.5952
96.9246 3008.7395
102.7306 1972.5938
103.0552 47315.6133
111.9305 2949.0598
118.9931 134030.5039
119.0120 3894.7207
138.9101 3009.1831
143.9019 21345.4648
147.0451 551615.2407
159.9513 7267.3518
161.8938 2696.8210
162.0921 33503.3135
162.8882 2681.7729
162.9830 351021.0000
164.0716 2081770.5273
180.9189 4547.5171
188.0621 12363.4668
206.0823 1292821.4961


Name: 19 (2,3-DIHYDROXYBENZOATE)
RT: 3.690000
PUBCHEM_COMPOUND_CID: 19
Precursor_type: [M-H]-
PrecursorMZ: 153.0194
Comment: 3.69_153.0194m/z
Formula: C7H6O4
Num Peaks: 19
64.9459 42251.9648
64.9989 21130.1992
94.9260 4936.1572
95.9185 4213.4775
96.9262 14506.7988
96.9615 13527.6846
108.9360 43133.1758
108.9889 140043.9688
109.0295 372379.1914
109.0439 7585.9355
112.9560 22132.1797
131.8862 4459.4053
135.9037 6591.9688
140.9501 7164.3496
141.9499 8983.6592
152.8938 9854.3535
152.9196 5442.8325
152.9786 39336.1875
153.0194 176371.7832

Name: 10685 (INDOLE-3-ETHANOL)
RT: 7.230000
PUBCHEM_COMPOUND_CID: 10685
Precursor_type: [M+FA-H]-
PrecursorMZ: 206.0823
Comment: 7.23_206.0823m/z
Formula: C10H11NO
Num Peaks: 35
58.0297 139936.3643
63.3257 1895.9926
64.6237 2106.7151
70.0298 83161.4375
71.2808 2338.6233
72.0093 10095.8708
75.0035 8414.5457
79.9579 1923.6890
86.7681 2255.4807
91.0554 144277.9019
91.0687 4882.5425
93.5561 2393.1880
96.9249 12710.0610
99.9259 6056.5471
103.0557 7730.9502
104.9924 1783.0171
111.9282 7346.9326
112.9374 4737.0371
116.3735 2117.9561
118.9929 91632.6055
126.9356 2238.6763
133.8574 2374.7151
143.9015 18683.0190
147.0452 242586.8931
147.3495 1912.5867
148.7306 2009.4789
159.9513 5108.5840
162.0925 13458.4763
162.8945 3137.0232
162.9830 275295.0313
164.0717 988770.0059
177.9139 2078.7527
180.9183 11689.3833
189.8511 4860.9136
206.0821 655694.4580


Name: 6581 (2-PROPENOATE)
RT: 1.520000
PUBCHEM_COMPOUND_CID: 6581
Precursor_type: [M+FA-H]-
PrecursorMZ: 117.0193
Comment: 1.52_117.0193m/z
Formula: C3H4O2
Num Peaks: 4
73.0296 203013.7656
99.9258 2171591.7227
116.9285 22217698.1875
116.9678 143271.6094

Name: 10140 (GLYCOCHOLATE)
RT: 13.230000
PUBCHEM_COMPOUND_CID: 10140
Precursor_type: [M-H]-
PrecursorMZ: 464.3021
Comment: 13.23_464.3021m/z
Formula: C26H43NO6
Num Peaks: 34
58.1206 2381.4458
60.0470 2566.8943
70.7018 2468.1038
74.0247 973697.4917
85.8999 2621.6882
95.0498 4205.9956
109.4115 2632.7307
112.9861 5878.1860
138.5358 2771.3103
146.9621 6831.5784
153.2527 2796.9744
162.8707 2499.7090
168.5372 2691.0225
174.9563 39264.3594
260.9967 3094.4019
284.8964 2970.8691
328.8882 2561.2527
341.2540 2814.8220
351.2112 3512.7209
353.2423 2756.7532
364.9829 3789.9900
382.2764 3990.9199
384.9913 3425.1077
384.9964 5173.6719
400.2834 25582.3633
402.3015 106419.5322
403.3067 4906.7705
404.9998 8651.0215
420.3095 7744.0073
424.9996 9670.0776
426.1897 3422.8076
444.9996 3115.1079
445.0052 5995.0278
464.3019 3677363.0000

Name: 11427 (2-HYDROXY-4-(METHYLTHIO)BUTANOATE)
RT: 4.390000
PUBCHEM_COMPOUND_CID: 11427
Precursor_type: [M-H]-
PrecursorMZ: 149.0279
Comment: 4.39_149.0279m/z
Formula: C5H10O3S
Num Peaks: 21
51.0501 833.5974
56.3336 831.7443
72.0439 837.2465
75.4792 789.1332
75.9360 810.2681
90.9232 29037.2599
90.9342 3181.2883
91.9319 28700.2949
92.9289 41676.2061
93.9466 19764.1213
101.0250 11499.4167
102.9347 1809.7202
103.9317 16615.8586
104.9295 15934.4771
106.9863 917.3986
118.9673 912.5261
119.9260 19501.6206
132.9361 959.9622
147.9239 857.6863
148.9002 4590.1851
149.0274 45393.3164

Name: 5778 (THIOPURINE S-METHYLETHER)
RT: 5.940000
PUBCHEM_COMPOUND_CID: 5778
Precursor_type: [M-H]-
PrecursorMZ: 165.0241
Comment: 5.94_165.0241m/z
Formula: C6H6N4S
Num Peaks: 19
55.8986 2193.1741
57.4012 2261.0808
62.4015 2440.4805
87.4161 2231.7717
96.9599 353487.4688
96.9711 6704.7183
100.6803 2146.9954
105.8083 2649.7017
108.9370 3573.3281
117.0219 9864.6553
119.0365 83759.6846
121.0299 39950.3496
132.0443 15072.0322
136.9324 163083.5391
136.9727 3641.6943
150.0006 1513643.9563
164.8951 37687.9297
164.9273 16544.3184
165.0239 5907286.0830

Name: 445858 (FERULATE)
RT: 7.310000
PUBCHEM_COMPOUND_CID: 445858
Precursor_type: [M-H]-
PrecursorMZ: 193.0507
Comment: 7.31_193.0507m/z
Formula: C10H10O4
Num Peaks: 39
71.0536 7472.5791
72.4392 9073.7393
75.9372 11164.3887
85.6598 7111.9077
86.9497 20720.8516
89.9256 59758.1563
90.9232 90585.8750
90.9337 1300802.3438
91.9420 6307.7188
93.9471 130253.2188
102.9335 1318829.8125
103.9437 6419.3608
104.9095 26407.5859
105.0139 23094.5293
105.9201 27119.5195
105.9470 144838.2969
106.9282 18428.0625
107.9266 20651.6973
109.9417 13997.2305
119.9262 285609.9375
119.9465 9884.7080
120.3346 7315.6812
121.0287 11756.5107
130.9395 142247.6045
134.0374 689026.1934
134.0620 13781.1230
137.0240 37843.5977
139.0402 15124.8076
143.2588 8092.5195
146.9233 430296.3750
147.9214 636530.9375
148.8997 23394.2344
149.0039 48630.1914
149.0607 240625.3750
149.9368 219993.2500
164.8955 22587.6934
178.0273 608933.5469
192.9906 30606.0977
193.0507 468133.4375


Name: 127115 (3-AMINO-5-HYDROXYBENZOATE)
RT: 1.240000
PUBCHEM_COMPOUND_CID: 127115
Precursor_type: [M-H]-
PrecursorMZ: 152.0354
Comment: 1.24_152.0354m/z
Formula: C7H7NO3
Num Peaks: 16
64.9459 4611.7554
64.9993 12224.4727
67.0193 7087.9917
86.5324 4201.7402
94.9266 6141.2705
96.9269 11012.9795
96.9619 7998.7891
102.4727 4182.7388
103.9197 6273.9966
108.0456 1479132.6797
108.9359 4230.2954
108.9889 90652.8828
109.0305 9079.0654
112.9566 13001.8174
140.9511 9279.7217
152.0355 651304.5156

Name: 289 (PYROCATECHOL)
RT: 3.690000
PUBCHEM_COMPOUND_CID: 289
Precursor_type: [M-H]-
PrecursorMZ: 109.0295
Comment: 3.69_109.0295m/z
Formula: C6H6O2
Num Peaks: 12
56.3193 1069.4199
64.9457 18043.0983
90.9232 43363.1774
90.9341 5566.7814
91.9319 40252.4883
97.1865 1203.7048
104.8329 1357.9522
108.0218 5286.3014
108.8994 8825.7021
108.9933 3647.5775
109.0019 1538.3625
109.0294 162285.2251

Name: 11970 (2-HYDROXYPHENYLACETATE)
RT: 5.170000
PUBCHEM_COMPOUND_CID: 11970
Precursor_type: [M-H]-
PrecursorMZ: 151.0401
Comment: 5.17_151.0401m/z
Formula: C8H8O3
Num Peaks: 50
58.7724 150.3188
70.4476 152.4853
75.0099 328.6390
77.9110 153.7912
79.9577 628.6342
80.9655 6157.5319
88.9243 155.4483
90.9233 14361.2519
90.9343 311.1783
91.9205 1833.8890
91.9315 15913.5773
92.9291 51232.3833
92.9414 544.3538
93.0346 312.4637
93.9190 6253.2278
93.9474 9235.7196
94.2268 146.5972
94.9266 37426.9882
97.1503 175.5358
101.6882 144.2074
103.0411 161.6771
103.9328 3825.5764
104.9284 18440.7303
106.9266 15835.7683
106.9932 13497.7991
107.0501 85840.4851
107.0639 401.7842
107.9260 12244.6598
110.9223 173.4512
114.3293 146.2306
118.8990 887.0664
119.9267 383.4459
120.9305 159.1692
121.0299 6302.0072
122.9524 6686.7265
122.9582 3811.4367
130.9924 230504.4269
131.0109 949.3941
132.9355 3309.7486
134.5890 153.0897
134.9341 1762.0114
136.0145 381.1028
136.9311 517.0557
148.9249 167.5997
149.1062 147.4841
150.9162 5880.6612
150.9813 339.9934
151.0033 2756.4858
151.0087 1380.7386
151.0401 160094.9300

Name: 243 (BENZOATE)
RT: 7.810000
PUBCHEM_COMPOUND_CID: 243
Precursor_type: [M-H]-
PrecursorMZ: 121.0295
Comment: 7.81_121.0295m/z
Formula: C7H6O2
Num Peaks: 6
67.8728 3082.2312
90.9238 4386.2563
91.9201 4680.8823
108.9002 4060.4431
120.9320 6877.7876
121.0296 85140.5933


Name: 74300 (10-hydroxydecanoic acid)
RT: 10.470000
PUBCHEM_COMPOUND_CID: 74300
Precursor_type: [M-H]-
PrecursorMZ: 187.1341
Comment: 10.47_187.1341m/z
Formula: C10H20O3
Num Peaks: 34
61.7112 4026.8376
79.9569 16307.5996
92.9955 7244.6631
98.9542 4623.7974
99.9262 27598.0469
100.9338 6088.7417
115.9203 7141.2505
116.9283 9537.0166
116.9953 16820.2285
118.9277 18616.7168
119.0349 13511.3271
125.0966 44565.7500
127.2706 4367.6323
140.8878 9294.4268
141.1287 22569.7422
142.8663 7096.0259
142.8972 6156.1089
142.9413 16155.9795
143.8996 9359.8613
147.0055 5352.3345
154.9465 5392.6865
158.8918 10560.3818
159.8939 17063.2949
166.9923 28241.2734
168.9631 5336.6001
169.1224 10574.2217
172.8876 9726.4580
182.0475 4802.2134
183.4943 4264.5933
185.1159 5205.0762
186.9321 7150.2231
186.9979 20966.5879
187.0999 39574.9766
187.1338 857983.0156

Name: 12544 (GLYCOCHENODEOXYCHOLATE)
RT: 13.980000
PUBCHEM_COMPOUND_CID: 12544
Precursor_type: [M-H]-
PrecursorMZ: 448.3072
Comment: 13.98_448.3072m/z
Formula: C26H43NO5
Num Peaks: 32
62.1580 2164.2000
62.5620 2351.2065
64.3221 2290.9580
65.6781 2268.9980
68.9947 2269.5459
74.0248 1213111.8413
78.9354 2346.4956
84.0457 4899.4985
114.9901 2652.5176
158.9795 13999.4863
159.3358 2748.4697
168.5450 2588.6479
170.0444 2663.1243
174.9562 5614.3872
284.9904 2874.0471
302.9916 3571.7097
322.9850 2907.5271
330.2402 3027.2507
334.8564 4042.8064
340.9854 4948.2476
340.9934 2812.7720
368.9818 6249.2769
368.9868 4424.1001
384.2940 14382.5903
386.3069 109760.3984
388.9883 5119.5850
388.9969 7617.3916
404.3203 5209.9551
409.0021 16063.0591
428.9897 8581.1465
428.9949 8812.5479
448.3073 3701582.8594

Name: 72 (3,4-Dihydroxybenzoic acid)
RT: 3.720000
PUBCHEM_COMPOUND_CID: 72
Precursor_type: [M-H]-
PrecursorMZ: 153.0194
Comment: 3.72_153.0194m/z
Formula: C7H6O4
Num Peaks: 27
59.6160 753.9445
61.5584 669.7796
62.2810 910.4249
64.9458 50991.9516
64.9988 34148.3125
71.5142 937.4844
80.4723 679.8251
81.0345 2648.6971
94.9273 4697.4654
94.9450 1796.5431
96.9259 9327.2878
96.9614 10481.3766
99.5551 712.9036
104.9964 769.3478
108.0218 6480.3420
108.9366 40495.1828
108.9889 243307.9844
109.0295 671681.2737
109.0430 6134.7984
112.9561 21898.5880
120.9608 1791.1469
129.2292 785.9511
135.9027 3027.9519
140.9513 16063.1108
152.8948 6487.0770
152.9796 56039.8109
153.0194 294242.3125


Name: 5744 (CORTISOL 21-ACETATE)
RT: 11.600000
PUBCHEM_COMPOUND_CID: 5744
Precursor_type: [M+FA-H]-
PrecursorMZ: 449.2185
Comment: 11.60_449.2185m/z
Formula: C23H32O6
Num Peaks: 26
59.0137 192117.0623
83.0145 2732.0664
101.0250 3674.6414
103.1528 1927.9487
158.9787 7386.7896
174.9569 14071.6279
220.5131 2462.8301
225.1368 1972.0100
284.9931 6239.9932
290.8680 2138.3745
297.1523 8442.4043
301.1842 3700.6140
304.9166 2857.2400
305.0004 2240.1536
315.1668 4158.8164
329.1719 3608.0959
331.1906 46255.5000
332.1975 6416.1230
334.8636 2175.2031
343.1913 10470.9873
373.2047 7625.6152
385.2046 3365.1917
403.2108 25684.7478
428.9992 2547.8374
449.0079 2756.2498
449.2113 4246.2466

Name: 487 (METHYLMALONATE)
RT: 2.280000
PUBCHEM_COMPOUND_CID: 487
Precursor_type: [M-H]-
PrecursorMZ: 117.0193
Comment: 2.28_118.0266n
Formula: C4H6O4
Num Peaks: 22
51.6832 5029.0815
54.3724 6272.2227
55.7544 6141.4185
60.8356 7049.1875
64.3752 6095.9386
66.4227 12286.7561
68.4226 6424.7366
70.2860 7698.7740
72.4791 4827.2757
73.0290 23680.3270
74.2249 5434.6256
75.7504 5201.7126
83.3570 6284.5664
90.2730 5076.9944
99.9258 2896733.5859
99.9376 9357.4302
105.4492 6101.3510
109.2900 6755.1183
109.3223 6017.1099
110.8906 5964.3170
116.8971 16744.0357
116.9285 28919117.9018

Name: 86 (3-HYDROXYANTHRANILATE)
RT: 3.680000
PUBCHEM_COMPOUND_CID: 86
Precursor_type: [M-H]-
PrecursorMZ: 152.0354
Comment: 3.68_152.0354m/z
Formula: C7H7NO3
Num Peaks: 16
64.3505 3990.9968
64.9459 22943.7051
64.9990 11736.5879
70.2473 3879.1282
71.5755 3479.3533
91.0188 29901.7871
96.9265 4554.7437
96.9613 4646.0845
107.0376 36411.0469
107.9269 6140.2695
108.0456 1645384.1699
108.9357 11109.7119
108.9887 84250.8125
112.9563 6888.0332
140.9516 6329.4067
152.0354 494695.1563

Name: 547 (3,4-DIHYDROXYPHENYLACETATE)
RT: 4.260000
PUBCHEM_COMPOUND_CID: 547
Precursor_type: [M-H]-
PrecursorMZ: 167.0351
Comment: 4.26_167.0351m/z
Formula: C8H8O4
Num Peaks: 12
54.7854 3182.3936
90.9232 8068.3857
98.9549 17773.7871
113.8317 3220.5698
123.0049 7334.1035
123.0452 177417.5469
138.9294 34537.6133
141.0525 3718.3533
152.0086 4342.7593
166.9259 4559.3252
167.0020 4614.2896
167.0329 25891.6660

Name: 397 (INDOLE-3-ACETAMIDE)
RT: 5.950000
PUBCHEM_COMPOUND_CID: 397
Precursor_type: [M-H]-
PrecursorMZ: 173.0721
Comment: 5.95_173.0721m/z
Formula: C10H10N2O
Num Peaks: 37
68.3032 4035.5676
75.0087 10473.1084
78.7385 3623.0171
79.9575 5831.8271
83.9313 6653.3643
84.9575 9236.2168
85.9468 45447.9023
97.9310 16689.6270
98.9370 33992.0320
99.9258 194714.9531
100.9335 74503.5000
100.9523 91792.4453
100.9672 3228.3032
101.9414 10474.0986
102.3338 4145.7134
104.9543 5670.0215
114.9335 8365.0244
115.9207 131779.9063
116.9284 184985.6406
116.9472 124172.2891
126.9322 5408.4263
128.0494 9376.6201
128.9475 133377.9375
129.9338 21506.3223
130.0662 156129.7876
130.0890 6786.0137
142.8982 8035.7573
143.8991 9495.3877
144.9425 114869.7866
147.9471 4648.0659
154.9476 39999.5469
172.8330 5874.1167
172.8825 5684.3716
172.9109 19806.2363
172.9390 9113.4834
172.9928 15395.8301
173.0723 416863.4727


Name: 444972 (Fumaric acid)
RT: 1.450000
PUBCHEM_COMPOUND_CID: 444972
Precursor_type: [M-H]-
PrecursorMZ: 115.0037
Comment: 1.45_115.0037m/z
Formula: C4H4O4
Num Peaks: 12
51.8021 900.2311
56.1740 903.1851
66.9185 875.4163
68.9957 7109.5570
71.0139 20698.2241
79.5779 1062.3641
86.0829 983.3795
96.9410 17753.2079
97.9312 116024.3535
99.9259 14153.6963
114.9342 1145017.4063
114.9512 129995.2754

Name: 73000 (Pterine)
RT: 1.940000
PUBCHEM_COMPOUND_CID: 73000
Precursor_type: [M-H]-
PrecursorMZ: 162.0423
Comment: 1.94_162.0423m/z
Formula: C6H5N5O
Num Peaks: 13
89.4966 3412.3242
92.0260 3921.3076
99.9258 4061.2727
100.9260 15816.1328
115.9216 4122.7456
116.9294 3747.2329
117.9286 20412.3242
118.9939 27021.0254
119.0362 150558.1563
120.0208 9908.0615
143.9269 6920.0625
161.8942 163598.4063
162.0422 524663.8560

Name: 11756 (ETHYLMALONATE)
RT: 3.770000
PUBCHEM_COMPOUND_CID: 11756
Precursor_type: [M-H]-
PrecursorMZ: 131.0350
Comment: 3.77_131.0350m/z
Formula: C5H8O4
Num Peaks: 19
52.2379 1242.8718
58.8698 1126.8531
60.3154 1212.0620
61.4693 1569.8192
85.0332 1421.9084
87.0451 62761.3213
90.9343 2622.9652
91.8655 1276.6213
98.9386 1381.2086
99.9263 1553.1930
100.9336 419162.7986
100.9496 11483.0118
102.9882 2851.0016
110.6832 1356.4244
113.9261 23547.2598
115.9206 461910.3181
115.9360 1184.0409
130.9449 12691.5503
130.9922 83406.2773

Name: 464 (Hippuric acid)
RT: 5.290000
PUBCHEM_COMPOUND_CID: 464
Precursor_type: [M-H]-
PrecursorMZ: 178.0511
Comment: 5.29_178.0511m/z
Formula: C9H9NO3
Num Peaks: 24
56.0137 5338.8765
77.0396 20669.4985
84.9905 37920.6367
90.9982 57453.9844
99.9260 27373.2590
102.0346 8027.7661
110.9755 9825.7666
121.0296 6419.1084
122.9589 17395.2510
132.0446 13695.5889
133.0550 2149.9775
133.9423 20530.9473
134.0611 969024.2510
134.0854 6997.6084
134.9642 5846.3232
134.9878 239803.2109
148.0407 6115.0913
148.9011 2739.6790
149.9577 11140.6924
150.9541 139559.5078
160.0401 4114.5889
177.8662 3017.6135
177.9028 47151.4727
178.0511 985946.7793

Name: 126 (4-hydroxybenzaldehyde)
RT: 5.490000
PUBCHEM_COMPOUND_CID: 126
Precursor_type: [M-H]-
PrecursorMZ: 121.0295
Comment: 5.49_121.0295m/z
Formula: C7H6O2
Num Peaks: 6
82.2533 3674.2676
91.9214 5433.9922
93.0347 3843.2063
108.0216 5697.8257
120.9317 7781.6372
121.0294 827302.3750

Name: 873 (3-(2-HYDROXYPHENYL)PROPANOATE)
RT: 7.420000
PUBCHEM_COMPOUND_CID: 873
Precursor_type: [M-H]-
PrecursorMZ: 165.0558
Comment: 7.42_165.0558m/z
Formula: C9H10O3
Num Peaks: 28
55.4622 1724.9204
57.0921 1800.6802
70.2334 1689.7189
79.5022 2022.2952
79.9572 1937.7052
80.9653 1982.8907
87.3101 1856.9177
96.9600 237508.9922
106.0422 8829.9854
108.9369 6519.9185
116.9283 6177.2195
119.0500 2585.7654
120.9378 5156.3135
121.0293 35195.6602
121.0658 381443.2012
121.0855 3305.5273
121.9044 2354.1514
124.1441 1945.2245
136.4742 1932.8290
136.8927 4029.9043
136.9324 208897.2656
147.0448 39064.3560
150.9483 7557.2578
164.8950 50551.3867
164.9273 39322.9531
164.9747 3498.2087
165.0218 4366.2813
165.0556 136014.0981

Name: 92859 (3,5-DIIODO-L-THYRONINE)
RT: 9.400000
PUBCHEM_COMPOUND_CID: 92859
Precursor_type: [M-H]-
PrecursorMZ: 523.8861
Comment: 9.40_523.8861m/z
Formula: C15H13I2NO4
Num Peaks: 24
52.6837 2746.7043
54.3120 1981.5726
64.2868 2825.4595
72.0091 212120.7061
72.0186 6074.4751
100.8409 1861.1083
126.9050 4293388.5938
174.9570 12456.0088
218.9100 2404.3904
222.0563 7988.6543
224.0719 5540.8691
302.7473 2819.4790
316.6634 2233.0930
322.9597 34674.7854
335.9650 4298.1860
349.9769 4042.5593
379.9535 28157.4683
395.9758 9733.5107
396.9823 9024.3262
414.9672 2211.2876
423.5945 3591.9255
461.3072 2264.6807
506.8597 284271.8320
523.8858 237469.8252


Name: 440667 ((5R)-5-[(1S)-1,2-dihydroxyethyl]oxolane-2,3,4-trione)
RT: 0.540000
PUBCHEM_COMPOUND_CID: 440667
Precursor_type: [M-H]-
PrecursorMZ: 173.0068
Comment: 0.54_173.0068m/z
Formula: C6H6O6
Num Peaks: 50
58.3189 477.2796
62.1402 578.0323
64.2972 546.1249
64.5845 503.1819
69.3884 530.7908
75.0088 249317.6381
75.0166 755.8560
79.4274 481.7870
83.9314 4691.4515
84.9574 15573.9373
85.9468 49677.9883
92.9292 1195.1334
93.1436 646.9619
97.9310 10819.8846
98.9369 45146.3673
99.9259 184364.9678
100.9333 74466.5479
100.9522 170221.7944
100.9675 1036.7937
101.9411 14964.3889
104.9277 551.0221
104.9550 2764.4578
105.0195 26186.0073
111.6380 526.8145
114.9337 3761.7998
114.9515 588.1857
115.9207 125260.4375
115.9391 1755.3534
116.9283 183499.7109
116.9470 262686.8851
116.9681 1674.9448
118.9654 4467.5732
119.9499 589.1561
126.9318 12990.1460
128.8775 912.5130
128.9474 304531.9221
129.9358 23563.2759
129.9532 729.1144
129.9685 496.7544
142.8967 1102.4454
142.9970 863.0376
143.8986 702.1974
144.9424 256753.5759
147.9468 7224.5358
154.9475 40014.8809
155.8860 6789.7540
156.8942 7200.0224
172.8868 19429.7036
172.9366 31466.7625
172.9925 9892.3750

Name: 5801 (2-aminophenol)
RT: 1.150000
PUBCHEM_COMPOUND_CID: 5801
Precursor_type: [M-H]-
PrecursorMZ: 108.0455
Comment: 1.15_108.0455m/z
Formula: C6H7NO
Num Peaks: 10
61.5213 3444.8037
64.9458 3950.0955
88.3908 3535.1499
89.9209 2983.2900
90.9234 54388.7383
90.9342 7834.7612
104.2773 3648.0781
107.0380 28276.6484
107.9257 6441.6719
108.0454 509018.7861

Name: 119055 (DIHYDROBIOPTERIN)
RT: 5.430000
PUBCHEM_COMPOUND_CID: 119055
Precursor_type: [M-H2O-H]-
PrecursorMZ: 220.0841
Comment: 5.43_220.0841m/z
Formula: C9H13N5O3
Num Peaks: 50
66.0101 13958.5645
72.9491 5945.3413
94.0427 5897.7046
99.9261 111455.0400
108.0457 6731.7622
108.9900 5480.0283
114.0552 5310.5015
116.9118 8238.2373
116.9287 92868.1445
119.0356 22756.1797
121.0526 11802.0498
122.0360 61595.8750
123.0581 7539.0859
125.0466 6989.8633
135.0569 13422.2549
137.0464 15351.1807
147.0323 13204.6143
149.0342 5581.9756
150.0674 114631.9609
151.0511 76163.0234
152.0829 52505.6836
152.9786 13227.7002
158.9240 9057.8535
162.0418 33021.6992
163.0519 8655.8457
164.0340 10788.2773
164.0583 209288.8594
164.0821 4890.8667
164.0911 5189.0493
174.9183 50495.2969
175.0628 41261.3125
175.8620 994749.0313
177.0785 111091.1797
178.0616 153160.9063
179.0670 6128.9829
190.8129 9626.0791
190.8493 161792.7734
191.0458 32330.7852
191.9336 6487.3740
192.0909 5667.5508
192.9293 43786.5781
193.8732 15911.1230
201.9157 6213.9756
202.0765 6394.4800
202.9143 40926.4766
203.0574 14428.0498
208.8608 11860.9170
218.0667 6604.0356
219.8531 20614.0820
220.0845 2304218.8750

Name: 802 (INDOLE-3-ACETATE)
RT: 7.710000
PUBCHEM_COMPOUND_CID: 802
Precursor_type: [M-H]-
PrecursorMZ: 174.0561
Comment: 7.73_174.0561m/z
Formula: C10H9NO2
Num Peaks: 39
65.4596 6264.1846
79.9572 31618.2793
84.9385 17510.3008
85.9467 57802.5405
86.9763 21909.6738
90.9707 7764.4731
99.9259 335672.0313
99.9376 5066.1919
100.9346 73867.6328
101.9424 9654.1240
102.9715 110954.6484
102.9857 8079.2915
112.0850 15171.5313
115.9205 125844.7266
116.9287 297928.9639
117.9459 7628.3218
118.9662 1429371.1250
118.9818 23658.5938
122.7563 7014.5547
128.0508 43355.4922
128.9288 10445.9883
129.9361 24415.8711
130.0661 742983.3945
130.0836 17019.6348
130.9449 13326.8447
130.9661 82490.7266
132.9810 25752.3203
143.8989 12291.0977
144.8988 12754.2168
146.9611 10985642.0000
147.4113 8117.3945
148.9652 24706.2930
154.9933 8589.3193
157.0864 14684.0205
160.9770 342163.3750
161.9491 12312.5615
173.4392 7007.6084
173.9098 14135.0273
174.0557 25932.4824


Name: 65083 (3-amino-4-hydroxybenzoic acid)
RT: 1.170000
PUBCHEM_COMPOUND_CID: 65083
Precursor_type: [M-H]-
PrecursorMZ: 152.0354
Comment: 1.17_152.0354m/z
Formula: C7H7NO3
Num Peaks: 11
51.2298 4365.9106
64.9455 6040.4521
93.5950 5730.3638
96.9610 5084.0435
107.0377 18233.2754
108.0454 3067903.4414
108.0588 46319.0703
108.9886 46339.6211
112.9562 6129.6553
140.9516 6418.7617
152.0354 979445.0254

Name: 385 (6-CARBOXYHEXANOATE)
RT: 5.960000
PUBCHEM_COMPOUND_CID: 385
Precursor_type: [M-H]-
PrecursorMZ: 159.0664
Comment: 5.96_159.0664m/z
Formula: C7H12O4
Num Peaks: 38
57.9740 950.6642
67.7972 961.7551
68.9958 25166.6133
69.0350 1870.1906
70.9991 57193.7260
78.3911 1104.1505
83.0502 1820.2948
85.0161 1065.8723
86.9936 92548.3057
92.9956 1281.3840
95.0501 88437.2937
97.0497 1403.2341
97.0658 1377290.5654
97.0777 2344.6689
99.8505 1178.6036
99.9256 28368.4048
100.9343 9474.4930
102.9888 136565.4780
103.0041 2336.8962
112.9857 32517.3984
114.9375 30593.9213
114.9888 234429.8999
115.0035 709.6501
115.0765 393510.4451
115.0911 752.0198
115.9210 10065.6003
116.1217 1219.2539
116.9285 48540.9111
130.9838 720081.9229
131.0026 11260.1072
140.9306 2428.2168
141.0556 49595.9133
141.9290 14297.7937
144.9995 3381.5719
158.8935 115575.8418
158.9502 10014.5215
158.9821 46179.6243
159.0663 870515.7943


Name: 10243 (4-QUINOLINECARBOXYLATE)
RT: 2.380000
PUBCHEM_COMPOUND_CID: 10243
Precursor_type: [M-H]-
PrecursorMZ: 172.0405
Comment: 2.38_172.0405m/z
Formula: C10H7NO2
Num Peaks: 50
56.6637 799.5031
56.7754 892.6085
66.7602 922.1069
75.0088 115310.4129
75.0170 2514.1293
83.9523 2571.3476
84.9577 9658.5185
91.0671 849.5285
92.9293 711.4542
97.9305 28474.1080
98.9371 32081.8652
98.9559 2704.0961
99.9261 37320.3046
99.9566 30649.6945
100.9527 123139.8516
100.9674 1273.2354
105.0191 13724.7150
113.9259 10037.3467
114.9341 16869.1313
114.9515 6672.3304
115.9204 5183.2820
115.9514 34967.9436
116.9283 6325.9372
116.9474 184592.8884
118.9670 1770.6717
125.9350 642.6152
126.9324 8590.7193
127.0469 643.5289
127.9214 890.2861
127.9521 35028.6507
128.0507 2274358.5246
128.9475 215214.8594
128.9653 640.9925
142.9006 713.2377
142.9477 3842.4499
143.9467 50124.4883
144.0455 2599.5232
144.9424 175357.6094
146.0612 20499.7824
149.3994 650.9766
153.9135 13487.2666
154.9474 24626.8744
155.0399 721.0427
155.8871 3164.0048
156.8960 3093.5305
163.6920 669.2679
171.8850 8383.8057
171.9132 17392.0112
171.9426 1507.1271
172.0406 413833.1616

Name: 811 (ITACONATE)
RT: 3.140000
PUBCHEM_COMPOUND_CID: 811
Precursor_type: [M-H]-
PrecursorMZ: 129.0194
Comment: 3.14_129.0194m/z
Formula: C5H6O4
Num Peaks: 38
51.0471 390.6581
53.3481 424.1431
54.5789 443.0877
56.4796 1146.9963
59.6195 449.2345
60.4400 486.5066
60.6971 436.8457
61.9884 10613.2113
69.6382 426.0613
72.8624 434.1900
73.7655 906.2664
74.6209 404.7453
75.2546 407.5849
77.1137 462.5921
77.3736 1026.3236
80.3832 894.5995
84.9386 46150.3296
85.0295 246820.2527
85.0415 2314.1249
85.9473 2807.8993
89.2470 1029.7969
90.1906 408.8704
96.2584 402.3126
98.9389 12940.2308
99.9259 108128.8005
100.9349 1602.6722
101.6664 518.3467
103.1870 494.5107
108.7314 467.9144
113.9267 11265.8713
114.9510 456.2900
115.9212 8947.3784
116.4716 1366.0007
116.9283 7832.0571
116.9468 5108.6301
128.9468 507.6785
128.9659 1580.9889
129.0187 23159.1556

Name: 12046 (2-METHYLGLUTARATE)
RT: 4.550000
PUBCHEM_COMPOUND_CID: 12046
Precursor_type: [M-H]-
PrecursorMZ: 145.0507
Comment: 4.55_146.0580n
Formula: C6H10O4
Num Peaks: 48
51.7512 6064.3057
52.5216 847.4001
52.8683 941.1398
53.0571 1347.5074
53.5834 1018.2307
53.8266 1284.1320
54.9943 1090.3682
57.7682 2370.6690
58.0383 1314.2396
58.5908 921.9946
61.0555 924.4930
63.8343 1008.8109
66.6025 987.2538
67.6132 1492.3947
70.0796 1276.8734
70.6563 862.7768
78.2459 971.3485
83.0509 256306.9591
83.9306 1587.2753
83.9589 882.4546
85.5371 793.2731
87.5303 801.9605
93.0240 1098.5628
93.7935 2376.3104
94.3485 1901.6401
99.9260 112159.7651
100.9336 1205852.4125
100.9501 13579.2165
101.0609 2198148.9256
101.0740 13583.6895
101.9506 2501.4391
103.4388 1102.1943
109.7086 1092.9927
110.8637 1661.5799
115.9031 3716.2682
115.9205 513538.2086
115.9397 7047.7776
116.9268 6076.2919
117.2298 1604.3790
118.3841 7706.2432
125.1733 1105.8069
127.0376 154422.6583
127.5810 1500.3678
136.0826 1150.3337
137.2067 839.8549
144.8968 1383.4228
144.9220 2151.8238
145.0506 851296.8796

Name: 12046 (2-METHYLGLUTARATE)
RT: 4.550000
PUBCHEM_COMPOUND_CID: 12046
Precursor_type: [M+Na-2H]-
PrecursorMZ: 167.0326
Comment: 4.55_146.0580n
Formula: C6H10O4
Num Peaks: 23
50.4651 780.7032
50.8843 858.0455
52.0572 794.6597
56.0991 829.8165
71.7832 928.7195
72.9903 1065.0396
87.9781 1136.8594
90.9226 6014.2998
95.0135 2374.3630
98.9554 19456.9351
99.0448 30112.3516
99.9264 2113.4077
101.0604 34429.6211
105.0972 991.9833
110.2992 847.4024
123.0062 9643.8818
138.9296 55554.0684
139.0382 33283.8955
141.0531 27695.9592
154.8885 903.5507
166.9247 11497.9954
167.0022 2245.0117
167.0326 670272.4172

Name: 47 (3-METHYL-2-OXOVALERATE)
RT: 4.970000
PUBCHEM_COMPOUND_CID: 47
Precursor_type: [M-H]-
PrecursorMZ: 129.0558
Comment: 4.97_129.0558m/z
Formula: C6H10O3
Num Peaks: 39
50.0190 754.6604
50.7220 286.6987
51.2717 1054.6439
51.9838 283.0378
53.4132 911.6388
53.8401 294.7211
57.9579 277.1762
58.1957 282.4504
61.9882 17679.1741
70.0843 305.1637
72.5231 747.1335
75.9174 298.4714
76.1565 329.7707
77.2099 295.1487
77.9443 331.7392
81.2178 328.5390
81.3721 1003.3029
82.5769 980.5345
83.4632 328.7196
83.9307 290.8798
84.9386 65707.7812
84.9859 405.9401
85.0291 373.9755
86.8758 325.8536
98.9390 39528.3301
99.9258 127002.1478
100.9338 790.4140
109.2761 334.3540
111.0446 795.2759
111.1682 356.5417
113.9264 42281.9808
114.9517 2643.7555
115.9199 6497.4191
116.9282 5267.1903
116.9463 3252.0982
128.8701 400.5102
128.9678 1444.9968
128.9979 519.3004
129.0555 64310.4300

Name: 903 (N-ACETYLSEROTONIN)
RT: 5.190000
PUBCHEM_COMPOUND_CID: 903
Precursor_type: [M-H]-
PrecursorMZ: 217.0984
Comment: 5.19_218.1056n
Formula: C12H14N2O2
Num Peaks: 38
58.0297 59025.0485
86.4429 1285.2314
90.9334 22838.0605
97.9313 8121.1816
99.9257 16947.2679
102.9334 8508.7327
103.9318 4007.5371
114.9335 1597.6543
115.9196 1389.6909
116.9283 29470.8229
116.9437 1452.5280
120.4654 1318.3853
124.7620 1216.5890
128.8831 1655.6450
130.0663 3270.7933
131.0372 15221.9762
132.0455 1334.5924
144.0451 2154.3278
145.0502 3856.0908
146.0600 7489.7126
146.9608 3923.8885
147.9207 9927.0941
148.9484 4593.5967
149.9362 6860.9092
157.0546 2822.6527
158.0612 206384.2101
171.9471 7203.6022
172.8672 25051.4564
173.8672 36720.0352
173.9611 4503.9193
175.0888 2838.5980
187.8550 6344.0799
188.8553 3993.6496
198.0423 1686.3737
199.0857 1596.5659
199.8506 61415.9580
216.8538 80289.5641
217.0982 590980.3818

Name: 903 (N-ACETYLSEROTONIN)
RT: 5.190000
PUBCHEM_COMPOUND_CID: 903
Precursor_type: [M+FA-H]-
PrecursorMZ: 263.1037
Comment: 5.19_218.1056n
Formula: C12H14N2O2
Num Peaks: 33
58.0298 5588.9033
85.7652 3354.5759
90.9335 10518.5635
91.9316 18077.5547
92.9291 130695.7266
92.9423 6229.4385
99.9264 7593.0781
102.9322 5593.3350
103.9317 11142.4551
104.9290 132999.7344
108.9235 4240.7070
112.9855 6328.8018
116.9306 5007.7104
132.9351 14732.8037
146.9231 8039.9014
147.9216 22800.1953
148.9192 246754.1201
149.9369 16754.7051
150.9388 30273.9746
158.0625 34372.2148
162.8932 4661.2212
172.8693 5159.7046
173.8664 6338.8535
194.9261 52881.2773
206.9478 6171.5342
216.9288 9030.3398
217.0986 283232.7651
217.1380 2955.7097
219.8229 4245.0879
221.1541 5849.7896
234.9374 5254.3179
248.0783 6803.2017
262.8159 6663.7085

Name: 445027 (DETHIOBIOTIN)
RT: 7.350000
PUBCHEM_COMPOUND_CID: 445027
Precursor_type: [M-H]-
PrecursorMZ: 213.1246
Comment: 7.35_214.1319n
Formula: C10H18N2O3
Num Peaks: 50
53.3044 931.6817
58.1388 2008.1980
59.0254 1008.5274
63.3562 1038.0387
69.7070 1843.0366
69.8510 2105.1494
75.5669 1964.7174
90.4579 987.9297
90.9340 1538.1317
96.0813 31030.4829
97.0852 2040.1897
98.9564 1598.2080
99.9254 4977.9990
100.9340 15597.6147
104.3880 5341.7095
107.7687 987.3597
110.3905 2093.2061
112.9853 1256.9419
115.9202 10099.7854
116.9272 3106.4841
118.9238 16437.4468
126.0921 21499.1830
127.0952 2241.9639
128.1079 14385.1016
129.1105 1332.8433
133.4576 5311.9766
142.9462 1956.6689
144.4160 5764.6118
144.9228 5533.7166
145.0504 1111.8740
150.5599 2035.4817
150.9148 7624.5527
152.1074 12955.3584
152.1585 4711.1323
153.1106 1167.9329
168.9902 5257.1096
169.1347 539506.4780
169.1630 945.8091
170.1185 531164.7832
170.1396 50100.3984
170.1502 2970.8047
171.1217 58242.3677
177.9024 6253.2952
192.9876 1147.4457
194.9906 1405.9460
195.1122 11090.8092
196.0223 966.1703
212.9104 6111.2637
212.9166 4865.5015
213.1245 4337280.0938

Name: 445027 (DETHIOBIOTIN)
RT: 7.350000
PUBCHEM_COMPOUND_CID: 445027
Precursor_type: [M+FA-H]-
PrecursorMZ: 259.1300
Comment: 7.35_214.1319n
Formula: C10H18N2O3
Num Peaks: 39
58.9589 6041.3362
59.3847 1966.1365
61.9888 1983.2897
64.0122 1765.6240
65.5879 1916.1008
68.9104 2310.9600
72.6107 1828.9320
73.2084 1854.9044
83.8669 1966.7926
98.2390 2130.6523
99.9262 8156.3916
100.9330 2909.9087
102.9129 2033.2847
102.9488 112466.8828
110.9760 4417.2183
116.9281 12768.8022
118.9281 2891.3606
123.9395 1953.3810
124.5506 1921.9468
146.9386 171045.1082
146.9599 7460.5874
154.9912 7082.8584
167.7494 2116.9736
169.1353 27586.9443
170.1187 29883.0049
174.9590 6003.7229
174.9988 12666.1641
183.8597 2169.6731
190.8529 7479.3411
190.9290 55294.1934
191.9422 2418.4702
195.0052 2163.0579
196.1163 1783.2930
197.8259 1965.8254
213.1246 553775.9619
218.3141 3086.1558
219.9705 3579.6443
258.8473 2662.1812
259.0146 2381.7617

Name: 2266 (AZELATE)
RT: 8.950000
PUBCHEM_COMPOUND_CID: 2266
Precursor_type: [M-H]-
PrecursorMZ: 187.0977
Comment: 8.95_188.1050n
Formula: C9H16O4
Num Peaks: 50
57.0344 78251.3553
60.4613 2269.8821
67.4091 1914.5483
67.6383 762.5157
69.0335 1439.9821
70.5371 15112.4883
73.5929 658.7320
79.9574 19397.0876
80.3782 660.3626
84.9384 10875.6582
88.1950 17074.2676
92.9949 4278.3738
97.0659 490006.4147
97.0808 1056.7135
97.9321 919.7921
98.9542 3605.8310
99.9262 36684.8352
100.9336 7433.7264
103.0027 807.4592
112.8935 1482.6364
114.9491 4233.0957
115.9202 10236.9197
116.9291 10765.8123
116.9964 9146.1871
118.9268 33582.6909
119.0350 15144.5889
123.0816 179215.4534
125.0972 9193730.0293
126.1228 1053.1312
129.8091 790.5526
129.9365 6154.1790
140.8872 11590.7068
142.8996 12733.8740
142.9426 15142.1865
143.1075 157975.4919
143.8991 15129.2920
146.2916 17346.4648
147.0080 3004.4550
148.1925 784.3283
154.9465 689.2498
158.8938 13017.1859
158.9879 3145.1097
159.8941 23427.3608
166.9928 18022.9645
169.0873 269639.5816
172.8857 12064.4010
186.9308 5683.9609
186.9981 12744.2908
187.0157 1143.1946
187.0978 8495516.6292

Name: 2266 (AZELATE)
RT: 8.950000
PUBCHEM_COMPOUND_CID: 2266
Precursor_type: [M+Na-2H]-
PrecursorMZ: 209.0796
Comment: 8.95_188.1050n
Formula: C9H16O4
Num Peaks: 50
51.3162 958.4494
60.4481 3061.7383
64.8822 3096.1897
69.4375 2781.5417
87.9258 5233.2360
92.9818 1180.2438
92.9955 18758.6536
98.9210 2674.0177
99.9270 2498.8046
109.2089 1065.2412
113.0611 1567.5094
120.9203 939.7598
120.9404 1230.1272
125.0022 6777.1456
125.9426 3185.5620
134.9600 2423.6411
136.1311 3114.0366
140.9893 4438.9954
141.0922 251889.3035
142.9914 7291.8336
143.1072 7006.5009
145.0087 17968.9976
145.8973 6487.4672
153.0526 1269.8799
155.0688 21164.5197
161.0582 7433.8550
162.9544 31535.3464
163.0740 10023.0264
163.9168 996.0019
164.9862 3173.4260
165.0914 1634.8098
170.2510 1107.1472
177.0524 1412.3845
178.9103 35847.2629
179.0703 7445.5693
180.9655 53140.3142
181.0847 368282.7158
183.1003 124775.2290
183.1375 2364.5195
183.5270 1100.9781
188.9468 1015.6752
188.9954 3942.4301
191.0688 8201.3071
195.0632 17056.0680
195.1005 6288.5696
197.0793 17536.7604
197.1146 1800.3351
208.8283 26705.6416
208.9263 10095.4238
209.0797 3173768.3623


Name: 69371 (2,6-DIHYDROXYPYRIDINE)
RT: 1.670000
PUBCHEM_COMPOUND_CID: 69371
Precursor_type: [M-H]-
PrecursorMZ: 110.0247
Comment: 1.67_110.0247m/z
Formula: C5H5NO2
Num Peaks: 21
56.3663 482.2304
58.6812 388.7390
60.6194 557.3119
63.8442 448.5509
66.0349 224289.8066
66.0432 1576.8095
76.2972 428.9326
78.9594 5125.2574
79.8763 387.5276
82.3163 470.6658
91.8920 397.7643
91.9314 64447.9305
92.9644 14549.9703
94.5865 424.6043
94.9634 406.6320
96.6895 530.5781
101.7830 416.7687
102.5006 527.0711
109.8974 3351.0605
109.9420 5717.4966
110.0246 579797.2758

Name: 196 (ADIPATE)
RT: 4.330000
PUBCHEM_COMPOUND_CID: 196
Precursor_type: [M-H]-
PrecursorMZ: 145.0507
Comment: 4.33_146.0580n
Formula: C6H10O4
Num Peaks: 41
50.0511 1207.7324
50.3874 1773.5356
51.2410 1371.7982
54.1604 1140.5188
54.8882 2816.4627
56.5585 1354.0371
57.9619 1465.2089
59.3356 1382.3594
63.3052 1156.4450
66.4605 1234.6509
74.4908 1331.5174
76.1966 1812.7612
76.8426 1163.4676
79.9501 1303.4044
80.9938 1260.1135
81.0341 17865.0132
83.0505 317306.7410
83.9307 3991.8910
99.9258 120741.7405
100.9337 1100096.9861
100.9485 6591.0896
101.0463 4746.9839
101.0610 348952.6940
101.9499 2034.1910
107.1393 2356.1691
107.2442 1342.2236
115.9031 2973.9188
115.9207 539018.5725
115.9397 9385.4720
116.9468 1536.9133
117.2458 1236.1099
117.5295 1342.2879
121.0434 1278.6802
121.0721 1713.2719
123.7650 1672.7974
127.0407 17567.7780
141.4911 1397.4893
144.8968 1420.3904
144.9223 1674.8525
145.0275 6195.3879
145.0516 194817.2943

Name: 196 (ADIPATE)
RT: 4.330000
PUBCHEM_COMPOUND_CID: 196
Precursor_type: [M+Na-2H]-
PrecursorMZ: 167.0327
Comment: 4.33_146.0580n
Formula: C6H10O4
Num Peaks: 22
61.9885 2715.9913
69.5812 1312.6610
73.2138 1189.0804
73.5214 1213.5522
78.4304 1170.5125
80.7406 1212.7480
83.5719 1128.6992
85.2490 1178.0700
90.9234 5292.4281
98.9555 22366.8737
99.0451 18601.2314
101.0604 42186.8848
111.1095 1165.6952
123.0043 2349.2139
138.9295 58066.7461
138.9499 1671.8330
139.0376 22273.7620
139.4321 1533.6307
141.0534 94746.3175
141.0728 886.1566
166.9243 7862.0983
167.0326 651867.8092

Name: 10457 (SUBERATE)
RT: 7.460000
PUBCHEM_COMPOUND_CID: 10457
Precursor_type: [M-H]-
PrecursorMZ: 173.0820
Comment: 7.46_174.0893n
Formula: C8H14O4
Num Peaks: 50
50.1250 2153.8760
53.3879 2999.3249
53.5588 2811.2777
57.0341 25571.2070
57.4180 2166.1090
75.0084 2950.5384
79.9574 7444.1141
83.0501 95926.4680
84.9580 2679.9107
85.9465 57888.9954
89.9029 2521.2096
97.9313 10172.3740
98.9368 16546.5638
99.9258 156514.7917
100.9336 74478.4577
100.9523 52761.8001
101.9409 17307.7944
104.9531 16455.5813
108.9562 2633.9714
109.0663 20300.0160
111.0814 2380470.0124
111.0962 15150.7567
114.9352 13044.9428
115.9206 97044.8379
116.9283 153547.9232
116.9471 73974.0771
127.8737 13215.0898
127.8936 1199.1375
128.8805 81161.1239
128.9473 91381.0586
129.0923 132703.9061
129.1136 4470.1315
129.8787 129385.0936
129.8976 2376.9505
129.9350 33862.3454
132.9907 3784.9884
136.8630 18215.0013
138.8598 5139.0716
142.8982 8084.7871
143.8998 12046.9019
144.9204 1770.8120
144.9426 68448.2512
147.9459 4282.5922
152.9976 5771.4011
154.9480 28773.1434
172.8311 246719.7936
172.8847 5151.4017
172.9366 7689.1511
172.9908 13698.4678
173.0820 2127175.4393

Name: 10457 (SUBERATE)
RT: 7.460000
PUBCHEM_COMPOUND_CID: 10457
Precursor_type: [M+Na-2H]-
PrecursorMZ: 195.0640
Comment: 7.46_174.0893n
Formula: C8H14O4
Num Peaks: 49
88.4194 1407.8289
88.6849 2129.1457
88.9459 4779.2183
90.9232 5692.0293
90.9339 17564.6960
91.9205 30003.8939
91.9321 45583.7370
92.9290 618461.2461
93.9472 17712.4525
102.9339 4413.2147
103.9180 1641.9338
103.9310 27887.8040
104.9289 379270.5863
104.9466 2125.9357
105.9461 6491.4175
107.9164 20001.9310
108.9241 19728.8809
109.9409 1769.4082
119.9262 15879.2487
126.9790 1706.5018
127.0766 116995.1064
129.0917 6004.6483
130.9707 2314.7246
130.9927 149552.4740
131.0148 3127.6058
132.9352 65971.7786
135.0091 3493.5007
141.0536 6702.0088
147.9210 17958.7500
147.9484 2134.9878
148.2760 1959.4870
148.9193 275458.1852
149.9834 1867.6488
150.9406 11878.8887
151.8996 5246.2030
166.0139 2009.4443
167.0690 136924.0633
169.0849 107102.3271
169.1161 2894.3483
175.0033 1612.2161
176.8944 52805.8473
177.8998 2169.4759
181.0022 75797.4635
181.8941 1528.4683
183.0647 10092.4365
183.9144 2375.1449
194.8687 2534.1911
194.9062 122706.5547
195.0641 1359496.6042


Name: 439230 (MEVALONATE)
RT: 1.920000
PUBCHEM_COMPOUND_CID: 439230
Precursor_type: [M-H]-
PrecursorMZ: 147.0664
Comment: 1.92_147.0664m/z
Formula: C6H12O4
Num Peaks: 37
56.3685 1154.2899
56.7188 1121.7306
57.0343 6106.7683
58.9588 13902.2434
59.0137 71963.5264
61.1405 938.4819
75.9364 14438.2520
81.7006 942.2728
83.8023 876.4740
87.9253 13861.9016
89.9255 23272.1792
90.9233 60538.8438
90.9336 99739.3984
90.9713 5173.8434
91.9314 165645.0664
91.9445 5340.1907
93.9472 80985.9043
93.9576 641.2140
99.9260 7030.8918
100.9258 13021.7721
102.9333 63505.3386
102.9487 66342.7305
105.9207 4963.0444
106.9284 1252.7894
107.9256 7201.8632
109.9418 15595.2227
115.9194 5514.4226
117.9195 14607.3477
118.5314 978.2748
118.9254 1459.1244
118.9661 69321.1777
119.9260 40774.5996
130.9396 11562.4158
146.8985 17372.0676
146.9206 928.1819
146.9611 6524.2376
147.0654 19782.5449

Name: 1245 (3-METHOXY-4-HYDROXYMANDELATE)
RT: 2.960000
PUBCHEM_COMPOUND_CID: 1245
Precursor_type: [M-H]-
PrecursorMZ: 197.0457
Comment: 2.96_197.0457m/z
Formula: C9H10O5
Num Peaks: 50
64.9461 4985.7527
75.0085 5332.6341
92.9292 12673.7070
93.9191 6261.7974
94.9267 141691.9420
94.9461 26601.1256
95.9452 2145.4870
96.9614 285553.0151
96.9761 3319.8944
104.9287 768.0238
106.9266 66277.2994
108.9354 32869.3576
109.9138 2052.3494
112.9564 200702.3075
112.9844 5185.5934
116.9284 8806.0116
122.9404 61083.7327
123.9398 2011.3336
124.9565 121993.8449
130.9925 21452.7130
134.9320 13262.4448
135.9042 793.9242
136.0169 4983.8394
137.0245 572873.6395
137.0443 2091.5207
138.0299 39490.9810
140.9514 512082.8634
140.9718 1932.6183
141.9768 2801.8860
150.9167 56015.1895
150.9791 13276.5729
151.0368 2775.9614
151.0607 1523.8492
152.8955 54737.1889
152.9212 4777.0434
152.9272 2734.8360
152.9513 230034.1747
152.9800 3877.6004
153.0575 7034.9430
153.9142 45514.3747
167.9053 1511.0414
168.9464 336553.3594
169.9133 1769.2883
171.9234 6448.1553
178.8938 2612.0221
196.8636 44987.7540
196.9066 3063.8445
196.9417 27283.3179
196.9840 54956.5958
197.0457 312139.8070

Name: 1738 (Homovanillic acid)
RT: 5.800000
PUBCHEM_COMPOUND_CID: 1738
Precursor_type: [M-H]-
PrecursorMZ: 181.0508
Comment: 5.80_181.0508m/z
Formula: C9H10O4
Num Peaks: 18
86.9869 6933.7261
91.9313 11066.9639
92.9205 23089.5410
92.9938 229682.4219
112.9855 768643.2383
116.9277 5829.6797
121.0289 8216.1895
122.0374 82191.5234
123.0427 9975.0820
136.0165 11569.5811
136.9097 28935.2832
136.9836 1042685.8252
137.0608 187141.0811
152.9176 43635.1875
180.8547 5621.2100
180.9112 25607.1660
180.9730 327469.5059
181.0494 81860.4922

Name: 70912 (N-ACETYLLEUCINE)
RT: 6.790000
PUBCHEM_COMPOUND_CID: 70912
Precursor_type: [M-H]-
PrecursorMZ: 172.0981
Comment: 6.79_172.0981m/z
Formula: C8H15NO3
Num Peaks: 35
58.0297 63349.4577
58.7682 19439.0130
61.5578 2388.3276
62.2520 2070.4836
66.5699 2151.4731
75.0085 8872.9375
79.9575 2110.3617
81.2114 17427.4089
82.0664 31064.6048
89.7051 2244.7892
97.9314 13185.6315
98.9373 10816.6937
99.9242 5565.6022
99.9565 6794.3688
100.9525 60449.0677
104.9537 4682.0257
112.2403 1837.2619
114.9338 11585.5915
115.9511 10920.2884
116.9472 80414.1484
126.4858 2145.7404
127.9498 8412.4349
128.1082 377002.0479
128.8830 2136.2585
128.9476 109823.2057
130.0513 24110.3958
130.0874 13549272.6484
131.1101 16251.3633
142.8976 2832.5954
143.9467 13109.6621
144.9429 56967.8359
153.9143 2603.3499
154.9468 18977.5254
164.3182 2220.3464
172.0979 5015657.2357

Name: 6990 (2',4'-DIHYDROXYACETOPHENONE)
RT: 7.260000
PUBCHEM_COMPOUND_CID: 6990
Precursor_type: [M-H]-
PrecursorMZ: 151.0401
Comment: 7.26_151.0401m/z
Formula: C8H8O3
Num Peaks: 34
57.5563 2662.8730
61.5548 13613.1141
65.0395 265446.0969
79.9570 1986.3871
80.9658 6970.6693
82.5365 781.4755
90.9226 4743.3963
90.9342 882.6380
91.0189 149790.3935
91.9324 11429.0115
92.9287 27886.6707
93.9189 900.8976
93.9470 3539.6832
94.9259 16646.7355
101.1683 1592.9277
103.9316 4244.9776
104.9291 15545.3701
106.9273 29089.4205
106.9571 939.1616
106.9931 9625.0082
107.0502 354273.0246
107.9261 6079.1627
109.0295 1181499.5398
109.0426 20754.5504
122.9530 13008.4330
128.7304 914.2912
130.9925 147598.8469
132.9363 870.2780
133.0297 112025.1002
135.0089 805651.8277
136.0149 7924.1365
136.9328 2168.6108
150.9167 1666.6016
151.0402 11513323.2016


Name: 1050 (PYRIDOXAL)
RT: 1.030000
PUBCHEM_COMPOUND_CID: 1050
Precursor_type: [M-H]-
PrecursorMZ: 166.0511
Comment: 1.03_166.0511m/z
Formula: C8H9NO3
Num Peaks: 31
57.8766 1351.3694
61.9758 1157.8565
61.9884 1497.8457
68.0411 1200.6506
71.4296 1112.0283
75.0086 3027.3431
75.2816 1148.6005
77.9517 6401.3283
78.2713 1136.1651
78.5171 1097.7620
90.9232 14125.4476
91.9206 5508.5291
94.0303 1315.4810
96.9595 14508.1034
96.9887 12957.4382
97.9600 2808.0075
98.9552 26567.9049
107.9261 6335.9622
108.0456 105200.9855
116.9289 4338.1370
120.0443 2730.9746
121.9032 4467.9056
121.9410 1637.9613
136.0404 22261.8431
136.8933 5768.2323
138.0559 300080.4214
138.9294 39104.0846
145.1504 1338.7205
152.2970 1328.3678
164.0372 1855.5298
166.0507 330426.2463

Name: 5192 (SEBACATE)
RT: 10.140000
PUBCHEM_COMPOUND_CID: 5192
Precursor_type: [M-H2O-H]-
PrecursorMZ: 183.1028
Comment: 10.14_202.1206n
Formula: C10H18O4
Num Peaks: 35
57.0344 107212.5938
64.0262 4151.4424
67.6633 3744.2239
68.9958 22063.0625
69.0344 8731.9150
71.0499 9045.2900
83.0497 9877.9404
93.9028 5030.4795
94.9169 14635.1348
95.9186 32351.3164
108.8993 11542.5410
109.8969 12085.6660
111.0814 120435.2881
112.9855 89370.1172
114.9341 48461.3594
116.9959 31662.4551
124.8939 6953.0015
125.8926 26297.6641
132.9905 4975.9067
136.8947 124120.5000
136.9839 6805.5630
137.0971 48300.6914
138.8704 55668.1172
138.9072 10459.2500
138.9883 15946.3223
139.1129 992619.8555
139.1325 20729.7500
139.9078 28291.3027
154.9502 28792.9648
154.9928 6644.4087
163.0019 6892.4155
182.9825 12272.2051
183.0085 13713.7549
183.0378 7453.1147
183.1032 163509.4170

Name: 5192 (SEBACATE)
RT: 10.140000
PUBCHEM_COMPOUND_CID: 5192
Precursor_type: [M-H]-
PrecursorMZ: 201.1134
Comment: 10.14_202.1206n
Formula: C10H18O4
Num Peaks: 43
50.0503 742.5710
57.0346 125498.4806
59.0130 693.9438
79.9578 9412.7285
98.9289 4535.6080
99.9257 22613.9357
99.9381 738.4264
100.9536 10777.3011
111.0813 133968.9019
112.9399 180689.0496
112.9581 1207.9146
114.1409 682.9976
115.9333 4680.2942
116.9270 3984.1909
116.9465 4185.5456
127.9317 8304.5321
128.9486 1383.5509
128.9666 876.5326
132.9456 803.1832
132.9896 839.4651
137.0977 4009.5233
139.1129 5412322.5724
139.1326 692.1791
139.1390 931.1592
144.9440 21998.6566
152.9962 1696.9861
156.0996 19912.6719
156.8929 8770.5487
156.9278 9074.2057
156.9479 800.6374
157.1231 80194.9929
157.9420 14793.8184
172.8864 137903.2861
172.9390 16049.7331
176.6312 1471.0462
180.8229 701.8350
180.9920 12315.6813
183.1029 3192401.6002
183.1426 2943.7783
200.8555 38319.3994
200.8843 30005.9320
200.9985 29413.3471
201.1135 8532631.6016

Name: 5192 (SEBACATE)
RT: 10.140000
PUBCHEM_COMPOUND_CID: 5192
Precursor_type: [M+Na-2H]-
PrecursorMZ: 223.0953
Comment: 10.14_202.1206n
Formula: C10H18O4
Num Peaks: 50
92.9955 2964.2152
94.9935 1831.7852
99.9252 6069.5801
108.9921 4404.8867
110.9838 1882.8739
116.9962 17442.6243
132.5197 1707.4460
145.0645 1843.1701
154.9948 9394.9813
155.1079 234740.6208
155.1316 3515.9352
157.1228 1813.2824
158.9887 4322.8657
166.9097 19534.8607
167.0697 4430.3887
169.0851 16972.9076
175.0745 22096.4941
176.9169 2293.6699
176.9790 2380.1061
177.0895 30863.9167
177.9032 23083.2370
178.8579 1694.8296
179.0688 2414.7384
179.1073 2586.9469
182.9861 42745.4766
191.0702 3340.7184
191.9160 1812.7523
193.0852 10268.3431
194.9036 91869.5182
194.9879 2685.8979
195.1005 393474.6634
195.1334 3778.7337
197.1160 73160.9132
197.1558 2222.3286
199.8519 2429.8327
202.9902 28556.0449
205.0833 6189.7513
208.0805 1768.1821
208.9177 2828.7891
209.0792 34071.9035
209.1166 5289.5023
211.0943 9778.3258
218.5887 1721.3315
219.1924 3058.8994
222.8411 4269.9346
222.8990 8432.4603
222.9917 3648.5462
223.0278 6556.1081
223.0360 8515.2288
223.0954 3526284.9837

Name: 780 (HOMOGENTISATE)
RT: 2.980000
PUBCHEM_COMPOUND_CID: 780
Precursor_type: [M-H]-
PrecursorMZ: 167.0351
Comment: 2.98_167.0351m/z
Formula: C8H8O4
Num Peaks: 50
50.7831 331.4145
53.7505 363.3153
54.8929 358.4733
61.9882 692.4934
65.3105 387.0397
66.5151 337.7140
66.7627 338.5870
68.9986 494.0742
75.2866 327.9403
75.3374 333.1972
77.8185 369.3832
79.2740 332.2326
83.0143 455.8969
83.0504 1287.2383
83.9109 337.4681
84.0182 333.3056
85.0277 3683.5508
89.7310 342.2531
89.9149 357.1960
90.9233 5259.7419
93.0348 2377.1968
95.0136 405.1622
96.9602 389.2013
96.9886 9119.2296
98.9552 26934.8409
99.0450 8954.4148
99.7196 325.4698
99.9248 442.5273
103.9198 370.4722
108.0217 37993.6254
109.0291 25988.7108
113.0251 490.6037
117.0512 467.8956
122.0174 857.7013
122.0375 88152.8583
122.0545 655.4204
123.0452 1076036.7065
123.0615 635.9851
123.0674 673.6260
124.0676 598.3692
127.0406 955.8506
132.5464 367.6095
137.0250 20703.7971
138.9299 36573.2449
162.5990 333.2475
163.8402 317.6564
166.8948 323.4240
166.9259 4086.0299
167.0033 1145.9170
167.0342 63308.0089

Name: 800 (INDOLEACETALDEHYDE)
RT: 3.960000
PUBCHEM_COMPOUND_CID: 800
Precursor_type: [M-H]-
PrecursorMZ: 158.0612
Comment: 3.96_158.0612m/z
Formula: C10H9NO
Num Peaks: 35
63.8048 968.8435
65.5427 933.6270
68.9959 15039.2183
70.9989 14110.5271
77.3246 1102.9835
86.9939 30133.1226
96.9593 1128.4231
97.9323 7284.2256
99.9254 30541.3164
100.9344 7735.8131
102.9887 84482.5117
107.8353 1061.2906
112.9854 24167.7705
113.9415 6416.3164
114.9342 15119.3269
114.9512 1371.6428
114.9884 47132.2920
115.9204 19388.2988
116.9277 7899.0481
128.0506 356380.3159
128.0736 1737.1362
130.0661 298543.6582
130.0893 5539.8433
130.9837 392638.9219
131.0014 1699.8964
132.0453 1581.5474
140.9288 1307.8839
144.0452 4072.3315
146.0612 25958.2239
151.0005 992.0248
156.0466 13486.4430
157.0527 2960.7698
157.8945 1360.8358
157.9313 4811.0139
158.0612 1299613.4756

Name: 338 (SALICYLATE)
RT: 5.540000
PUBCHEM_COMPOUND_CID: 338
Precursor_type: [M-H]-
PrecursorMZ: 137.0244
Comment: 5.54_137.0244m/z
Formula: C7H6O3
Num Peaks: 21
52.9173 850.9836
57.7493 2320.1829
59.3435 2365.4451
73.3929 2469.9226
87.4262 2670.1731
88.6580 7264.1450
89.9256 3172.8649
90.4190 785.7086
92.9940 1349.8865
93.0347 1896990.0686
99.9264 2620.5665
105.7148 949.0098
107.2129 1035.6304
108.0212 6425.2681
108.8996 67453.1443
124.8943 1376.3159
132.7764 7952.9673
136.8631 86637.7324
136.8925 121424.7673
136.9176 1128.5760
137.0245 633694.9978

Name: 12122 (3-HYDROXYPHENYLACETATE)
RT: 5.590000
PUBCHEM_COMPOUND_CID: 12122
Precursor_type: [M-H]-
PrecursorMZ: 151.0402
Comment: 5.59_151.0402m/z
Formula: C8H8O3
Num Peaks: 38
55.0191 5750.7769
57.3303 1887.4813
65.0396 7963.2183
65.3038 4473.2100
77.0401 5755.6641
79.0191 7404.5439
80.9647 3057.2307
81.0349 15180.5791
83.0509 21108.5220
90.9236 9528.6323
91.9210 3843.6936
91.9321 5672.8481
92.9291 37179.4766
93.0344 188058.2163
93.0488 5177.9590
93.9184 3141.0508
93.9476 4691.3799
94.9265 32635.5381
95.0505 19986.2109
95.9753 4440.7329
103.9324 2134.5264
104.9290 25220.2539
106.0423 5286.9341
106.9269 32268.8125
106.9935 5974.8706
107.0502 673107.5190
107.0677 2639.2561
108.0212 19155.8992
109.0291 32711.1855
111.0459 10736.3555
120.9290 1841.4827
121.0293 155376.2080
122.9557 4352.8584
130.9926 237939.4141
132.9360 5383.5947
134.9343 2436.5732
150.9160 3839.4980
151.0417 15882.2905


Name: 12473 (PYRROLE-2-CARBOXYLATE)
RT: 4.060000
PUBCHEM_COMPOUND_CID: 12473
Precursor_type: [M-H]-
PrecursorMZ: 110.0247
Comment: 4.06_110.0247m/z
Formula: C5H5NO2
Num Peaks: 15
50.9365 1288.7498
66.0349 286375.7100
66.9442 7586.5633
69.8977 1200.4118
71.6103 1211.5824
78.9587 4233.4173
79.9577 10239.2549
80.9652 1383.4829
90.7704 1173.9920
91.9315 47498.0339
95.9517 1423.5799
97.4661 1251.7260
109.8972 2745.3394
109.9424 5771.0867
110.0247 58753.5239

Name: 9378 (HYDROXYPHENYLLACTATE)
RT: 4.660000
PUBCHEM_COMPOUND_CID: 9378
Precursor_type: [M-H]-
PrecursorMZ: 181.0508
Comment: 4.66_181.0508m/z
Formula: C9H10O4
Num Peaks: 49
52.2684 481.9051
56.1338 675.8650
60.2590 528.6833
60.6211 710.5833
68.9962 694.7914
72.9929 145006.8962
73.0010 588.0513
75.4206 530.2841
76.8454 1309.8938
85.5046 1369.7565
86.9875 571.9578
88.7529 1369.7545
90.9242 3660.5209
90.9860 836.8758
91.9319 17650.4196
92.9195 27302.0405
92.9939 213248.6953
93.0346 10820.1789
93.9472 2069.1200
98.6838 776.6063
99.9261 3839.4128
102.6489 1111.7534
104.9714 963.5732
105.9372 1382.7574
107.0498 9161.5379
107.2466 1700.2665
112.9856 716722.4415
113.0044 7736.5591
115.2538 1215.9830
116.9285 2513.2122
119.0503 320134.4923
119.0712 2195.8110
119.9264 3306.8101
134.0376 10926.5955
135.0454 626107.8422
135.0639 1480.0018
136.9105 16368.9479
136.9836 918575.7766
137.0031 3683.2886
137.9653 863.1814
148.1758 780.4587
152.9176 51997.7124
163.0401 1080699.6010
163.0666 1188.2455
179.0324 1225.3721
180.9113 32447.8010
180.9177 6281.0889
180.9731 309231.7972
181.0506 1256948.3156

Name: 171548 (Biotin)
RT: 6.120000
PUBCHEM_COMPOUND_CID: 171548
Precursor_type: [M-H]-
PrecursorMZ: 243.0810
Comment: 6.12_244.0882n
Formula: C10H16N2O3S
Num Peaks: 50
68.0509 19381.3083
73.7287 2705.5308
74.0071 45904.4033
74.9291 3657.6897
76.0490 2621.0969
78.9597 3714.2570
95.0256 6016.0425
97.0413 1965.7058
102.9724 1811.4354
111.0451 4326.2168
116.9290 8423.3367
118.9661 43332.9570
120.0824 14812.0186
122.0977 82090.8203
123.4109 4693.1069
130.9661 30291.7939
139.0590 29490.5093
146.9612 1048268.6016
146.9890 12588.8364
152.9159 3022.7585
153.1047 6059.5496
153.8871 4874.7407
153.9139 257035.8477
153.9435 2450.1304
154.0853 1979.8638
156.0852 95769.9453
160.9774 9993.8816
165.1041 68699.4492
166.0874 420720.8416
169.9077 4657.5559
171.9238 20901.5142
173.9554 1574.7961
174.9564 2090657.9316
174.9846 10232.0176
191.0824 5058.9985
194.0348 1727.5795
196.9050 4528.4125
197.0929 28418.2324
197.9035 122765.4160
199.0911 106411.5059
199.9162 2661.9751
200.0752 675125.7798
209.0942 77762.5796
215.9164 29916.4961
219.9694 2053.2341
220.0643 2910.3882
221.7872 2675.1946
221.8117 4461.2183
242.8707 5287.1675
243.0812 2817194.2109

Name: 171548 (Biotin)
RT: 6.120000
PUBCHEM_COMPOUND_CID: 171548
Precursor_type: [M+FA-H]-
PrecursorMZ: 289.0865
Comment: 6.12_244.0882n
Formula: C10H16N2O3S
Num Peaks: 33
50.5232 2025.5309
59.0147 1733.2173
67.4082 1716.1934
70.7051 1763.6636
71.1050 1799.3507
73.4387 1718.0867
87.8602 1818.3944
94.7591 1815.7109
99.9258 1752.7529
114.9882 8341.4409
130.9839 20578.3350
146.9614 31595.8604
158.9785 44358.6746
165.1040 2255.1504
166.0874 10160.6787
174.9235 2707.5027
174.9565 101799.9844
174.9832 1184.4889
175.8634 2701.9160
176.8604 46759.6382
191.8477 10263.8008
195.0358 1811.1979
199.0942 2271.7043
200.0762 17985.5571
209.0911 2367.7146
220.8538 8253.6021
243.0810 166708.6230
243.8812 5218.1306
258.8487 2641.2188
261.8928 6938.4250
274.8457 2766.2747
288.7845 6543.5630
288.9335 8563.0615

Name: 171548 (Biotin)
RT: 6.120000
PUBCHEM_COMPOUND_CID: 171548
Precursor_type: [M+Na-2H]-
PrecursorMZ: 265.0628
Comment: 6.12_244.0882n
Formula: C10H16N2O3S
Num Peaks: 26
65.7882 3849.8274
71.1694 4262.8237
74.0071 21882.2500
92.9297 4034.7412
94.9264 14579.3447
99.9259 13445.5674
106.9263 13977.6143
108.9355 4740.0684
112.9846 9360.4785
116.9279 21524.6992
150.9165 31702.3711
152.8954 5465.1348
163.4443 3897.7698
166.6248 5008.2231
167.0143 4462.7246
174.8639 69656.9609
175.8617 84107.2734
189.8511 27051.3652
196.0425 4987.7891
218.8551 6997.1113
219.0715 25467.1934
219.8483 20466.3809
221.0734 28763.9434
239.0842 7201.3433
247.0715 4180.1060
265.0627 1288022.7344

Name: 5055 (RESORCINOL MONOACETATE)
RT: 7.240000
PUBCHEM_COMPOUND_CID: 5055
Precursor_type: [M-H]-
PrecursorMZ: 151.0402
Comment: 7.24_151.0402m/z
Formula: C8H8O3
Num Peaks: 32
65.0397 8755.1860
79.9572 2656.9526
80.9651 8746.2983
83.3936 2044.2570
85.8528 2166.6101
87.0956 1679.9379
90.9234 9196.3687
90.9346 2291.4497
91.0191 7147.8342
91.9315 15703.1294
92.9291 41859.3672
93.0346 3393.2944
93.9183 6093.9668
93.9470 7642.3435
94.9265 31842.9141
104.9295 18696.9248
106.9273 13959.7603
106.9574 4657.4543
106.9927 14037.5107
107.0502 18701.0234
107.9259 14871.4272
109.0295 58124.1543
122.9521 22906.1523
130.9926 147723.0408
131.0146 4225.1802
132.9352 5056.0393
133.0298 3332.9849
135.0088 32779.8730
135.0821 2873.5657
149.0978 2272.3555
150.9155 8239.1460
151.0402 613873.3906


Name: 439192 (SORBOSE)
RT: 0.590000
PUBCHEM_COMPOUND_CID: 439192
Precursor_type: [M+Cl]-
PrecursorMZ: 215.0330
Comment: 0.59_180.0636n
Formula: C6H12O6
Num Peaks: 13
98.9570 26548.3711
111.8295 10066.5391
114.9516 40251.7695
125.8733 226641.9688
142.9472 27701.2266
146.8688 12425.4502
156.8959 12517.5713
157.8628 19561.3867
168.3582 8986.9609
177.9039 11454.9365
187.9410 12556.2080
214.8332 21486.2266
215.0333 73792.3359

Name: 439192 (SORBOSE)
RT: 0.590000
PUBCHEM_COMPOUND_CID: 439192
Precursor_type: [M+FA-H]-
PrecursorMZ: 225.0618
Comment: 0.59_180.0636n
Formula: C6H12O6
Num Peaks: 50
59.0137 334136.0332
59.0195 8041.5169
61.9881 27751.0365
62.7525 6300.1159
71.0138 265258.5983
71.0211 4365.0368
72.1259 1249.2734
75.0086 13678.9207
84.9905 5058.0436
85.0294 23920.2194
87.0087 74671.0690
88.9880 6910.4310
89.0244 438885.6667
89.0353 9271.5866
95.0137 8378.2956
97.0300 6830.3926
99.0086 15155.9479
101.0245 104318.4601
103.1955 6357.2624
104.9282 40643.0729
113.0244 99334.9040
117.0195 18905.7878
119.0347 87339.7583
125.0242 18111.6029
131.0346 20581.3555
134.9386 2474.2054
135.0288 1689.7876
141.0199 15174.9349
143.0352 26339.5234
149.0458 11921.1732
156.8928 3299.3249
158.9500 5720.9095
159.0301 11417.4492
161.0454 160240.9118
173.2380 5141.9264
177.0407 8848.7057
178.9051 2741.9961
179.0562 1317415.6354
180.8703 4396.8219
180.9189 13556.8607
196.8668 67993.8457
198.8822 9019.3822
203.6212 7738.6810
214.8780 2497.7900
222.5507 6438.4193
222.7926 6996.6667
224.8612 12616.8346
224.9501 1409.4295
225.0025 1131.5926
225.0614 103064.5495

Name: 439195 (ARABINOSE)
RT: 0.640000
PUBCHEM_COMPOUND_CID: 439195
Precursor_type: [M-H]-
PrecursorMZ: 149.0456
Comment: 0.64_150.0529n
Formula: C5H10O5
Num Peaks: 15
59.0140 9439.6689
72.9936 9586.0205
75.9376 3454.4075
87.0089 24235.5684
90.9236 50399.8140
90.9346 5302.1597
91.9316 99761.6055
93.9471 43063.4688
101.2119 3528.0073
103.9315 45998.8291
107.9274 3979.0112
119.9266 22919.8066
147.9216 8050.0938
148.9012 8523.8027
149.0092 20744.8164

Name: 439195 (ARABINOSE)
RT: 0.640000
PUBCHEM_COMPOUND_CID: 439195
Precursor_type: [M+FA-H]-
PrecursorMZ: 195.0512
Comment: 0.64_150.0529n
Formula: C5H10O5
Num Peaks: 50
59.0137 412672.9941
59.0237 6141.6274
61.9880 25090.4341
61.9945 5185.7393
71.0139 261024.5757
75.0090 6850.4746
82.5997 2189.1958
85.0294 24981.1699
86.7192 6222.1250
88.9454 13353.9463
88.9882 6214.4546
89.0245 462624.3960
89.4571 2062.2168
90.9234 14568.1792
90.9348 17826.2695
91.9207 31005.1680
91.9320 41556.3428
92.9291 613196.5459
93.9472 13686.6533
96.9601 19700.0293
101.0247 28293.8652
102.9329 12161.4270
103.9312 36525.4883
104.9290 457686.9746
105.9476 3305.1167
107.9161 14814.5820
108.9243 12375.8213
113.0243 35837.2227
119.0324 5046.2104
119.9259 19957.9138
129.0181 2567.4282
130.9923 90244.2891
131.0347 29297.0078
132.9346 61818.0645
138.3193 1948.5859
147.9202 20457.3496
148.9194 282509.5068
149.0459 43732.1484
150.9405 10284.6174
162.8934 2131.1877
163.0618 2123.7402
168.9245 2512.7163
176.8915 13600.1377
177.9020 4359.1821
183.9120 3991.7153
189.7918 5504.5322
194.9041 34579.7056
194.9888 3332.2344
195.0238 21188.6094
195.0506 14446.3418

Name: 6912 (XYLITOL)
RT: 0.640000
PUBCHEM_COMPOUND_CID: 6912
Precursor_type: [M-H]-
PrecursorMZ: 151.0613
Comment: 0.64_151.0613m/z
Formula: C5H12O5
Num Peaks: 50
55.0188 37756.3582
57.0344 17313.0293
58.0057 7512.0903
59.0137 986361.0771
59.0195 34791.7451
61.9884 15124.4121
69.0343 11288.7998
71.0139 1205365.9746
71.0215 22303.9883
72.9933 16352.3379
73.0295 218094.4595
73.0376 3814.9060
75.0087 31770.6602
83.0139 76456.5903
85.0295 143011.1714
87.0087 31417.1617
89.0124 3818.1343
89.0245 1152206.5918
89.0352 27594.7898
89.9255 5802.0205
90.9233 6982.4457
91.0401 32670.6621
91.9313 6474.6660
92.9291 23549.6602
93.9186 3559.9719
93.9475 4364.1616
94.9268 23966.4941
97.0296 34240.5391
99.0098 5223.6094
101.0244 1288933.9424
101.0376 21808.8828
103.0402 20679.7813
103.9193 3300.9526
104.9288 17333.2666
106.9257 10745.8857
106.9927 5019.5845
113.0244 94748.5112
113.0405 8812.8809
118.8985 10421.0872
119.0350 124523.3521
119.9235 10145.4213
122.9569 3918.7146
130.9925 4129.7554
131.0349 79261.5835
133.0145 2400.6587
133.0503 57001.9458
149.0453 33291.2815
150.9157 5462.9844
150.9594 1937.6179
151.0613 1678807.4038

Name: 439709 (FRUCTOSE)
RT: 0.640000
PUBCHEM_COMPOUND_CID: 439709
Precursor_type: [M-H]-
PrecursorMZ: 179.0563
Comment: 0.64_180.0635n
Formula: C6H12O6
Num Peaks: 50
57.0345 6448.0801
58.0062 6631.5677
59.0137 478800.8672
69.0346 13600.7474
71.0139 375910.7246
72.9931 11637.1753
73.0296 43545.7188
75.0089 8855.4740
79.0188 4327.4740
81.0346 6179.2168
83.0139 27092.0651
84.9912 40328.3268
85.0295 97244.3141
87.0088 437811.7100
88.9886 14543.5244
89.0246 281127.2813
90.9236 19429.0697
90.9983 35851.1536
92.9291 16580.1348
95.0140 17812.9557
97.0295 36215.8932
99.0087 110597.0212
101.0244 100809.5052
103.9412 8884.1960
104.9286 4379.3792
105.0197 4496.0817
113.0244 74675.1624
117.0192 114728.6227
119.0347 20327.8568
122.9588 19812.0098
125.0245 80381.2308
129.0193 19876.9740
132.9586 13153.0612
134.9400 14400.1849
134.9878 155892.5391
141.0193 67477.9561
147.0302 5428.7490
150.9541 148417.2943
159.0300 51811.2679
161.0103 10220.6006
161.0455 526275.5335
161.8861 9211.2311
162.8934 8453.9036
177.0407 28671.1406
178.8923 15574.9922
178.9473 10424.2389
178.9796 32176.3919
178.9847 23076.6172
179.0216 8499.1921
179.0561 1092815.9271

Name: 827 (Xylitol)
RT: 0.640000
PUBCHEM_COMPOUND_CID: 827
Precursor_type: [M+FA-H]-
PrecursorMZ: 197.0668
Comment: 0.64_197.0668m/z
Formula: C5H12O5
Num Peaks: 50
59.0137 65475.0911
61.9883 262260.7386
61.9943 6266.2135
71.0139 85088.1715
71.0224 5774.1413
73.0297 13801.3685
85.0294 9682.6725
89.0245 135108.8398
89.0371 6768.3105
92.9291 7234.3298
93.9187 5347.7653
94.9261 82877.7702
94.9467 28437.0430
96.9611 248368.8400
97.9610 18427.5911
101.0245 141852.5723
103.9199 7767.4351
103.9771 5545.4333
105.0194 7042.8724
106.9263 56075.0840
112.9566 197251.5337
112.9841 5212.4399
113.0251 9038.8730
119.0350 28191.0677
119.9236 9546.2493
122.9397 50281.1947
123.9019 11147.4375
123.9398 10301.3340
124.9556 113436.4694
129.9754 26604.3542
130.9922 20221.1595
131.0347 16632.9948
133.0499 16099.2578
134.9340 5715.6532
140.9510 489587.2476
141.9125 7026.6289
149.0452 12546.5521
150.9182 40811.3607
150.9804 8609.8200
151.0614 1730979.0524
151.9134 15376.6927
152.0901 5484.4466
152.8957 124710.5768
152.9509 213291.0482
153.9136 22734.5736
168.9465 231391.7969
169.9455 81015.5260
196.8717 8796.3174
196.9408 17869.3649
196.9830 53961.1914


Name: 439255 (ARABITOL)
RT: 0.620000
PUBCHEM_COMPOUND_CID: 439255
Precursor_type: [M-H]-
PrecursorMZ: 151.0613
Comment: 0.62_152.0686n
Formula: C5H12O5
Num Peaks: 39
55.0187 153633.3140
57.0344 80071.6016
58.0058 30834.1582
59.0137 2679743.6016
59.0203 5144.0901
71.0138 3909796.3105
72.9927 29859.9746
73.0294 538294.3311
75.0093 44974.1367
83.0138 228801.1577
84.4305 26649.3906
85.0295 542482.5645
87.0089 81238.8704
89.0244 3500321.3828
90.9229 4192.9316
91.0398 53887.6094
91.9325 2503.4407
92.9290 16756.4648
93.9187 2471.3691
93.9473 3279.8481
94.9267 14136.3594
97.0298 42052.7070
101.0244 3908267.4211
103.0403 69228.9353
103.9194 2048.5667
104.9289 39738.4316
106.9271 4555.4468
106.9928 3455.4636
113.0241 298730.2603
119.0348 279583.6475
122.9592 3662.7905
130.9928 4072.9177
131.0345 303239.7227
131.1768 26077.7695
132.9363 1820.2982
133.0508 272733.6831
149.0433 65446.9246
150.9173 2247.3586
151.0612 4338317.0220

Name: 439255 (ARABITOL)
RT: 0.620000
PUBCHEM_COMPOUND_CID: 439255
Precursor_type: [M+FA-H]-
PrecursorMZ: 197.0668
Comment: 0.62_152.0686n
Formula: C5H12O5
Num Peaks: 50
59.0138 180447.1204
61.9881 57245.6668
68.4180 24326.3464
71.0138 306735.6030
73.0293 30256.0833
75.0088 4531.5435
85.0298 31989.8333
89.0245 381345.4964
92.9290 6748.7799
93.9189 3113.6099
94.9267 66297.0052
94.9458 20213.3760
96.9613 223438.4333
96.9761 2079.7321
98.9564 3087.0550
101.0245 374396.9460
104.9296 3474.1305
105.0192 8110.5407
106.9265 70764.7773
108.9357 2139.7191
112.9564 154632.3939
112.9843 5044.0506
113.0243 66341.9230
119.0346 59474.5885
120.1199 1623.8547
122.9407 44281.4447
123.9404 28527.1563
124.9562 82810.3958
130.9925 15773.3301
131.0347 77002.5547
133.0498 56826.3438
134.9328 5396.3608
140.9509 471682.3024
140.9726 1602.8742
142.9460 3269.0104
149.0470 18730.2357
150.9160 25492.6549
150.9804 8902.3350
151.0612 5643596.8226
151.0842 2596.4377
152.8957 123160.8343
152.9509 177376.8464
153.9132 19446.4466
168.9463 309278.9609
168.9786 2423.5298
169.9783 2314.5731
171.9240 2394.9666
196.8673 5715.5555
196.9418 10191.8171
196.9818 70747.6089

Name: 439255 (ARABITOL)
RT: 0.620000
PUBCHEM_COMPOUND_CID: 439255
Precursor_type: [M+Cl]-
PrecursorMZ: 187.0380
Comment: 0.62_152.0686n
Formula: C5H12O5
Num Peaks: 30
54.9736 3962.2593
61.9885 13088.5518
63.9886 3494.6782
70.5040 3554.7605
75.0086 6988.1968
84.9391 11005.3926
88.9882 24635.7910
98.9544 6876.6660
99.9259 31172.6445
100.0091 7880.0366
100.9338 5737.0552
106.9180 7009.9302
114.9513 16265.0791
115.0020 15034.3076
115.9206 9124.7266
116.9286 8775.9219
118.9273 11958.1982
129.9361 7399.3359
140.8870 9087.2949
142.8986 59379.2109
142.9424 15244.2676
143.8990 83576.1719
158.8934 69344.9609
158.9384 9899.1797
159.8939 99317.5391
159.9378 14879.4404
186.8792 16257.5459
186.9299 40086.5410
186.9959 5461.3560
187.0366 5149.1465

Name: 439312 (TAGATOSE)
RT: 0.620000
PUBCHEM_COMPOUND_CID: 439312
Precursor_type: [M-H]-
PrecursorMZ: 179.0563
Comment: 0.62_180.0635n
Formula: C6H12O6
Num Peaks: 50
55.0188 2750.0510
57.0345 2059.8142
58.0056 11493.5852
59.0136 851267.4683
59.0232 3425.3687
71.0138 665652.9646
72.9929 14710.5045
73.0292 10014.8154
75.0080 3117.8470
83.0135 11164.6221
84.9908 36289.6396
85.0295 51960.1008
87.0089 14773.5493
87.9256 2457.3218
88.9886 8215.7390
89.0244 516732.9380
89.0356 5479.0767
89.9259 3211.4603
90.9234 19045.8339
90.9980 37551.4355
91.0285 1514.7639
92.9278 11495.3582
95.0140 28634.5668
99.0089 5663.9502
99.9262 3708.3092
101.0243 116854.2109
103.9222 4635.4008
103.9406 13534.7690
113.0243 109179.3400
113.0417 4008.5599
118.9284 1479.3313
119.0346 46054.2297
122.9589 25971.0986
131.0350 3589.3051
134.8744 2476.3877
134.9165 3862.2914
134.9408 14791.4983
134.9685 4107.4803
134.9879 145060.1094
135.0111 2394.0022
150.9540 164602.8359
161.0102 11845.8516
161.8866 12849.1396
162.8917 15077.0261
178.8565 6232.4440
178.8915 23396.3696
178.9490 16942.3247
178.9783 49718.8633
179.0197 10171.9617
179.0460 4886.7295

Name: 439312 (TAGATOSE)
RT: 0.620000
PUBCHEM_COMPOUND_CID: 439312
Precursor_type: [M+Cl]-
PrecursorMZ: 215.0329
Comment: 0.62_180.0635n
Formula: C6H12O6
Num Peaks: 34
57.2112 1624.9645
61.9883 29236.3854
63.6825 1633.8357
65.2780 1758.7816
74.2929 1941.9650
80.9464 1694.7102
83.9190 1974.9412
89.0247 2668.8035
90.9335 9261.1025
96.9409 7470.1230
98.9569 27267.5703
99.9262 13685.3662
102.9330 4869.6831
103.3649 1750.9650
105.0088 1750.0835
114.9514 43916.5801
116.9275 9813.3901
118.9657 4307.5858
141.9305 2257.2544
142.9470 33549.1667
146.9209 2341.8857
146.9604 5609.7239
153.9138 13633.5205
156.8944 5633.9072
158.9402 6819.6074
159.9384 39592.8726
160.7802 1881.2208
169.8808 3605.6226
171.9369 8726.2188
171.9480 4651.9707
186.8986 2611.6909
187.9312 11585.9326
203.0073 1994.2056
215.0341 12921.8193

Name: 5780 (SORBITOL)
RT: 0.620000
PUBCHEM_COMPOUND_CID: 5780
Precursor_type: [M-H]-
PrecursorMZ: 181.0719
Comment: 0.62_182.0792n
Formula: C6H14O6
Num Peaks: 50
55.0191 68005.7708
57.0344 102358.2500
59.0137 3071466.3867
71.0139 3322713.0117
73.0295 1137019.2435
83.0138 230839.6195
85.0295 790673.9603
87.0084 63299.3333
88.9881 4134.9508
89.0244 3426693.8477
89.0370 4776.7894
90.9238 4892.7507
91.0394 62351.3939
91.9316 15881.7910
92.9196 21035.6680
92.9939 88019.5990
93.0065 2625.8787
93.9473 4765.6761
94.5948 39963.8750
97.0297 246099.2266
99.0082 2855.0811
101.0244 4640285.0241
103.0407 88119.4437
105.9370 5218.1069
106.1642 2776.3617
112.9858 470308.4574
113.0243 592765.8438
115.0399 301722.1934
119.0349 560300.0420
119.9261 2411.5269
131.0347 355823.7409
136.9088 62811.9336
136.9832 443507.4222
137.0033 5839.0495
137.9893 3227.3809
138.1542 50106.6406
143.0359 97142.7604
149.0450 170764.1019
152.9182 93452.4427
152.9461 3805.6842
161.0457 119737.9040
163.0613 1203861.9206
163.8869 2312.4834
164.8928 2551.5794
179.0564 88391.2500
179.3910 43655.0911
180.9166 36895.2669
180.9728 120769.6875
181.0171 4821.8402
181.0719 11937211.1369

Name: 5780 (SORBITOL)
RT: 0.620000
PUBCHEM_COMPOUND_CID: 5780
Precursor_type: [M+Cl]-
PrecursorMZ: 217.0485
Comment: 0.62_182.0792n
Formula: C6H14O6
Num Peaks: 18
61.9884 15459.4717
74.2280 3498.2976
87.6111 3181.5874
88.9888 4752.7251
92.2187 3484.6843
96.9600 5231.5596
99.9267 7347.3340
144.9455 7370.6978
146.9609 5045.4019
158.8916 4486.6855
159.9389 4514.1641
160.9370 16525.1777
170.8809 22589.3535
172.9472 6099.1904
181.0717 58930.3594
188.9320 4574.8140
216.9304 8347.8281
217.0487 28395.3223

Name: 5780 (SORBITOL)
RT: 0.620000
PUBCHEM_COMPOUND_CID: 5780
Precursor_type: [M+FA-H]-
PrecursorMZ: 227.0774
Comment: 0.62_182.0792n
Formula: C6H14O6
Num Peaks: 36
55.8780 1715.6570
59.0137 422294.8389
61.9880 37060.9336
67.6946 1850.3547
71.0139 438158.1309
72.2918 21813.5117
73.0295 165563.6411
75.0088 4301.8716
85.0298 138665.5859
89.0245 535544.7529
93.5975 2240.2866
97.0292 45078.0117
101.0243 726831.1543
113.0243 86239.4531
114.9880 3007.0657
115.0400 35386.0156
119.0342 124914.4482
125.8683 1834.8934
130.9839 9426.0137
131.0350 71444.3716
135.9182 29103.7813
138.9505 2133.8069
143.0348 26124.8145
149.0459 25621.5820
152.9181 20978.9258
154.9483 2247.6511
158.8931 5682.0640
158.9815 45141.1760
163.0613 247343.7744
179.0561 30322.3984
180.9147 172713.8203
181.0719 8754718.6138
198.8641 4608.7119
198.9234 3627.6946
204.9783 27791.5625
220.0106 32691.7402

Name: 439357 (GALACTOSE)
RT: 0.620000
PUBCHEM_COMPOUND_CID: 439357
Precursor_type: [M+FA-H]-
PrecursorMZ: 225.0618
Comment: 0.62_225.0618m/z
Formula: C6H12O6
Num Peaks: 50
50.4815 1253.4988
50.4944 1302.7175
51.1339 1342.6182
56.9981 1355.5463
58.0053 3417.1402
59.0137 694427.1547
59.0195 15661.8590
71.0139 494192.4787
71.0212 14048.2699
71.5193 1469.5330
72.1124 1945.7898
72.9934 4712.4082
73.0297 8210.2234
75.0089 19410.6350
83.0138 4884.9648
85.0298 26203.9695
87.0090 16971.9703
88.9882 14564.9048
89.0245 836127.8967
89.0352 8917.9883
90.9329 1505.2458
92.9068 1760.0537
94.9811 6359.8691
95.0140 25584.0174
101.0244 237926.6393
101.0372 2552.3010
104.9283 1267.5418
107.0348 4217.3740
113.0244 213510.1658
114.1122 1562.3141
119.0350 210479.8004
125.0243 5944.9615
131.0350 34742.1406
134.9409 1063.0153
141.9122 1788.2469
143.0350 53770.5316
149.0456 24511.2197
156.8941 4660.3977
161.0455 52636.5269
164.8942 1304.1619
178.9046 3864.5582
179.0563 203860.0311
180.8725 4488.9762
196.8661 81354.1329
196.9193 2161.0765
198.8836 17125.2973
206.9834 1460.8221
224.8624 21201.0708
224.9733 2045.6617
225.0376 2481.3572

Name: 5779 (RIBOSE)
RT: 0.650000
PUBCHEM_COMPOUND_CID: 5779
Precursor_type: [M-H]-
PrecursorMZ: 149.0456
Comment: 0.65_150.0529n
Formula: C5H10O5
Num Peaks: 16
59.0137 38335.3438
71.0140 23848.4063
72.9929 6291.7041
87.0089 19446.7285
89.0247 12024.2500
90.9234 42612.6646
90.9347 6801.5200
91.9316 71970.1836
93.9471 38223.5391
103.9313 32806.9199
105.1709 3204.6987
107.9264 6591.1953
119.9264 19799.9766
140.1395 3389.1606
147.9194 5728.6831
149.0083 19871.6816

Name: 5779 (RIBOSE)
RT: 0.650000
PUBCHEM_COMPOUND_CID: 5779
Precursor_type: [M+FA-H]-
PrecursorMZ: 195.0511
Comment: 0.65_150.0529n
Formula: C5H10O5
Num Peaks: 50
58.0062 2070.1687
59.0137 354303.2302
59.0196 1904.4048
61.9883 12192.5381
71.0139 213471.9614
75.0087 16657.7202
85.0296 19484.6326
88.9462 6298.2968
88.9888 9093.0791
89.0245 413944.7427
89.0355 2572.2585
90.9234 7055.4202
90.9338 10985.2498
91.9202 23545.4126
91.9323 40839.6055
92.9291 490873.5300
92.9428 6970.5127
93.9476 15741.6238
96.9607 15656.1011
101.0246 24290.7134
101.7631 2063.5542
102.9337 6747.0836
103.9317 34627.4453
104.9290 425886.6003
105.0185 3321.5222
105.9474 4151.1635
106.0590 1903.6204
107.9152 12252.5559
108.9236 10673.4446
113.0243 43000.8215
119.0361 3891.3461
119.9267 14991.5211
128.9673 2616.6653
129.0203 6190.8026
130.9926 96838.2070
131.0352 40935.1157
132.9350 60800.7881
138.9517 8402.5771
147.9212 18577.6311
148.9192 253046.0460
149.0457 62004.9795
150.9396 9001.1130
164.9683 2392.3979
176.2837 1866.8943
176.8923 17703.4810
193.6284 1848.6774
194.9053 31842.2957
194.9799 18670.7197
195.0261 40150.4850
195.0512 26884.9473

Name: 5779 (RIBOSE)
RT: 0.650000
PUBCHEM_COMPOUND_CID: 5779
Precursor_type: [M-H2O-H]-
PrecursorMZ: 131.0350
Comment: 0.65_150.0529n
Formula: C5H10O5
Num Peaks: 16
57.0346 7717.9463
71.0141 7520.1450
73.0295 8627.9004
85.0296 40752.5742
86.9389 3853.7744
87.0457 5892.3408
89.9258 4364.8257
90.9336 22084.3574
94.5016 3198.9246
100.9334 11777.9180
102.6330 3637.8259
113.0246 5991.8594
113.9265 6584.2612
115.9208 13871.0820
130.9670 3294.8972
130.9926 11152.3545

Name: 439373 (L-GULONOLACTONE)
RT: 0.650000
PUBCHEM_COMPOUND_CID: 439373
Precursor_type: [M+FA-H]-
PrecursorMZ: 223.0461
Comment: 0.65_223.0461m/z
Formula: C6H10O6
Num Peaks: 36
57.0343 29819.4414
59.0137 90619.6875
61.3051 4024.7180
71.0139 59993.6563
72.9933 8324.5869
75.0091 28206.5176
83.0139 5868.1396
85.0296 33631.7773
87.0089 19034.0410
89.0245 95780.3516
99.0089 58997.8828
101.0244 12474.4033
111.0092 30746.1387
113.0240 12395.1738
117.0188 6262.7344
122.9561 5182.5942
129.0193 159970.8281
131.0349 11236.8301
132.9449 9476.6816
133.9418 20188.3711
138.9514 16630.1035
141.0182 33789.2617
149.0453 8593.1240
153.9386 6481.6050
155.8926 6594.7134
159.0050 5399.2222
159.0300 37658.1289
164.9677 11117.8496
176.9155 27302.1289
177.0406 1164798.0391
177.9337 9170.1162
179.9550 52205.0259
194.9273 35495.6172
222.9228 8249.7646
222.9717 60219.7861
223.0156 6484.0474

Name: 440658 (MELIBIOSE)
RT: 0.750000
PUBCHEM_COMPOUND_CID: 440658
Precursor_type: [M-H]-
PrecursorMZ: 341.1094
Comment: 0.75_342.1167n
Formula: C12H22O11
Num Peaks: 50
55.0191 7121.3676
57.0345 7323.3284
59.0137 688645.4297
71.0139 511676.9375
73.0295 110812.4130
81.0351 4875.6904
83.0137 32360.9083
85.0294 59982.8499
87.0092 38171.5249
87.0454 5182.1731
89.0245 859379.8359
89.9262 8086.6796
90.9336 67223.0745
95.0140 32539.1548
97.0296 51747.8286
99.0102 6946.1367
101.0245 626483.8027
102.9340 64679.6329
102.9478 10091.1484
107.0349 13128.8093
113.0244 292364.4180
115.0403 12447.5903
118.8952 16129.5094
119.0348 338651.3730
119.0548 4511.4297
119.9265 4327.0883
125.0250 20220.6157
130.9294 5550.6741
131.0349 60130.2241
143.0351 110130.0527
143.0592 4154.7754
146.9218 107635.6514
147.9216 25066.0068
149.0461 37206.0483
149.9376 70639.3428
161.0457 166712.0684
162.8860 13992.6077
177.8609 14657.5732
179.0562 425925.5430
181.8612 5471.0005
183.8708 3903.2261
190.9277 8587.9009
192.9280 25652.5869
193.9271 34300.6829
204.8931 4647.1626
205.8549 5754.7803
206.8750 37980.9734
207.8722 8511.2637
221.0666 247183.8508
341.1098 341256.6829

Name: 440658 (MELIBIOSE)
RT: 0.750000
PUBCHEM_COMPOUND_CID: 440658
Precursor_type: [M+Cl]-
PrecursorMZ: 377.0861
Comment: 0.75_342.1167n
Formula: C12H22O11
Num Peaks: 29
56.1699 1232.0520
59.0139 9541.1706
59.9210 1080.3848
62.8170 1149.7351
71.0136 8884.8359
71.4634 1244.4976
73.0296 2806.6700
83.2791 1214.5339
89.0245 23372.6201
96.9601 1594.5570
101.0241 16790.8387
113.0246 7312.6136
114.9489 1610.5299
119.0348 9047.0789
131.0362 3003.7425
138.5762 1389.1729
143.0357 7497.1400
161.0454 14092.3294
167.4153 1273.7444
169.3956 1669.1322
172.9395 1586.6047
179.0564 41115.1429
184.9561 1948.5452
215.0342 3675.4212
217.1421 2970.0150
221.0661 10669.2074
308.9056 1285.9738
341.1044 28610.4375
377.0867 43068.4160

Name: 440658 (MELIBIOSE)
RT: 0.750000
PUBCHEM_COMPOUND_CID: 440658
Precursor_type: [M+FA-H]-
PrecursorMZ: 387.1149
Comment: 0.75_342.1167n
Formula: C12H22O11
Num Peaks: 50
53.1651 3952.2689
57.4665 4033.1921
58.9847 1509.1380
59.0137 294369.2858
69.0345 2831.4512
71.0139 244314.5313
71.0211 1369.0701
73.0295 133544.9292
75.0083 1514.0988
81.0347 8810.8065
83.0140 30820.6070
85.0295 23638.2747
87.0088 19003.2650
87.0453 1671.7980
87.6129 3709.9469
89.0245 437275.5698
95.0138 13622.3294
97.0296 93081.7520
99.0451 4213.3185
101.0245 410028.9884
101.0368 1465.5339
107.0351 8330.9772
113.0244 157711.1016
113.0430 3691.0760
115.0401 23103.3222
119.0350 145451.9251
119.0516 2854.3883
125.0243 17836.9902
131.0351 34101.7563
136.8945 2098.8062
143.0352 103456.3328
143.0622 1535.5749
149.0456 14738.3232
152.0423 1496.3177
161.0456 350463.2420
161.0778 3119.8060
179.0563 502424.5778
219.0015 1499.6286
221.0668 214397.9818
221.9468 1434.0620
245.8726 1983.8490
263.0775 21711.5280
281.0887 7832.6234
323.0991 3468.0677
340.9144 14713.3643
341.1084 339583.4488
341.1870 4043.8512
341.2119 4390.8382
387.0175 1405.0627
387.1086 3515.1263


Name: 31401 (URSODEOXYCHOLATE)
RT: 13.560000
PUBCHEM_COMPOUND_CID: 31401
Precursor_type: [M-H]-
PrecursorMZ: 391.2859
Comment: 13.56_391.2859m/z
Formula: C24H40O4
Num Peaks: 35
59.1124 3408.4321
72.3512 3839.7300
80.9643 3451.3213
95.7235 2663.9404
101.6552 3353.7644
102.9332 11310.5269
106.9283 3443.9041
112.9855 6458.7549
132.9693 2983.0903
146.9608 17249.5532
174.9564 77031.8398
216.9896 3474.9775
217.1623 8873.3096
220.3488 3465.5806
232.8926 7100.4783
266.9874 20014.8467
279.8944 6367.3511
282.9970 3403.7156
286.9916 12180.6343
302.9832 3966.3096
302.9919 5348.7808
304.9839 14033.4043
306.9982 3636.7876
310.9954 4621.0674
311.0037 3224.9631
322.9865 3704.9905
322.9959 3881.5806
330.9836 9194.5371
330.9897 9059.5469
350.9854 24354.8945
370.9864 14597.5391
370.9945 12570.6816
373.2776 7917.3022
391.0387 28270.9082
391.2859 8920027.6348

Name: 8158 (NONANOATE)
RT: 14.430000
PUBCHEM_COMPOUND_CID: 8158
Precursor_type: [2M-H]-
PrecursorMZ: 315.2544
Comment: 14.43_315.2544m/z
Formula: C9H18O2
Num Peaks: 50
58.0059 2845.1361
59.0142 21491.5724
112.9857 9969.1809
113.0975 2603.9188
114.9884 2199.5868
116.9283 16976.9879
125.0956 3294.4320
127.1129 16069.4139
130.9838 6113.8568
135.9133 15283.8965
139.1132 2331.4949
141.1287 24178.7288
143.1078 9383.7968
150.9549 5335.6782
155.1071 10130.1656
157.1246 8205.8188
158.9784 13384.2375
160.9783 2217.0211
169.1223 1947.2207
171.1022 15868.9971
171.1387 13506.6587
172.8863 4493.0795
174.9564 2356.9362
178.9502 15877.2475
179.9011 11745.6861
200.8809 53410.1546
201.1139 11038.7109
206.9892 1765.1433
227.0000 2947.8906
228.9922 6542.9115
234.9844 3636.1335
247.0057 2175.2696
253.2638 1733.7885
254.9931 10108.8406
255.0005 2116.6725
264.9912 4859.4071
266.9907 16077.7689
268.8668 10314.0061
268.8719 2985.6295
269.2548 3405.1032
275.0013 16527.4900
279.2333 16307.0695
294.9849 38634.9813
295.2299 4872.1457
297.2444 115406.0850
311.2236 1986.1625
313.2382 59526.0535
314.8659 2606.7731
314.9872 208343.8996
315.2558 1933554.2682

Name: 222528 (DEOXYCHOLATE)
RT: 14.940000
PUBCHEM_COMPOUND_CID: 222528
Precursor_type: [M-H]-
PrecursorMZ: 391.2859
Comment: 14.94_392.2932n
Formula: C24H40O4
Num Peaks: 50
53.7755 5232.2695
69.0335 6674.2676
85.2213 6273.4694
88.9096 5296.9697
96.9605 5487.7655
100.9330 1577.6213
101.4712 5774.1139
102.9329 2540.6081
115.1685 5708.4421
116.9298 1473.7373
146.1014 1799.8743
146.9608 8680.0270
174.9562 53459.9505
217.1591 4248.8714
217.3266 13451.6875
218.7880 2970.5475
232.8945 2066.2773
248.9987 1734.3509
266.9856 23793.1445
278.9025 2138.7257
279.8931 6867.9303
279.8983 5792.9896
286.9896 3322.5352
286.9967 3197.4072
302.9908 1708.0094
304.9828 2903.9323
306.9901 2002.9027
310.9949 2648.1151
322.9977 2178.6221
323.1784 1818.6151
327.2674 61761.8659
329.2844 49679.2038
330.9955 9270.0739
334.8238 6724.4727
343.2644 26302.7490
345.2805 213148.5078
347.2972 86858.1458
347.3883 8636.4043
350.9908 4098.2575
350.9964 4556.3773
355.2663 47877.1335
365.3072 42352.9453
370.9925 15983.0661
371.0064 6560.6217
373.2751 31968.3550
389.2704 2898.5348
389.2761 7685.7585
391.0031 24086.1354
391.0392 23844.6849
391.2859 9146703.8177

Name: 222528 (DEOXYCHOLATE)
RT: 14.940000
PUBCHEM_COMPOUND_CID: 222528
Precursor_type: [M+FA-H]-
PrecursorMZ: 437.2914
Comment: 14.94_392.2932n
Formula: C24H40O4
Num Peaks: 34
55.5250 2136.6104
58.4593 2927.5117
71.0770 3018.9084
90.5573 2977.6113
109.7808 1810.1097
112.9868 2141.0740
116.9283 7025.0347
133.4413 1792.9370
146.9622 7246.4651
160.9763 7148.7222
164.9272 9684.9419
174.9566 23220.2041
219.8220 2065.4067
220.4624 2609.5586
266.9831 2219.9565
272.9975 10180.2651
288.9330 2806.2688
289.0046 2528.1282
290.9865 1971.1808
292.9989 11169.9434
313.0049 2890.6807
316.9947 3800.8154
317.0032 3169.9185
323.8682 4352.3418
328.9964 2345.2070
336.9967 3466.5972
345.2808 7807.1909
347.2917 5163.1797
356.9921 14739.3384
376.9954 20026.3516
391.2852 701879.9956
396.9898 12889.5474
416.9923 22605.7197
436.9910 89168.2227

Name: 11740284 (LITHOCHOLATE)
RT: 15.600000
PUBCHEM_COMPOUND_CID: 11740284
Precursor_type: [M-H]-
PrecursorMZ: 375.2909
Comment: 15.60_376.2982n
Formula: C24H40O3
Num Peaks: 26
56.7537 3381.6951
64.9843 4147.6919
79.9565 4340.1812
102.9575 5144.2651
112.9856 12162.1641
124.4042 3872.2871
130.9437 6128.8115
137.6228 3696.8984
158.9787 10761.4453
174.9563 8830.1914
206.9951 3965.5171
221.0817 3886.1455
246.9946 4698.9209
264.9908 4831.8101
266.9850 9315.2949
290.9945 6177.6235
294.9914 8521.5303
306.9936 7453.8198
307.1970 6223.2295
314.9875 19591.8594
326.9948 5555.7095
334.9887 28414.4316
354.9886 38206.2515
374.9933 118688.3125
375.1905 60830.7764
375.2915 321354.8438

Name: 11740284 (LITHOCHOLATE)
RT: 15.600000
PUBCHEM_COMPOUND_CID: 11740284
Precursor_type: [M+FA-H]-
PrecursorMZ: 421.2965
Comment: 15.60_376.2982n
Formula: C24H40O3
Num Peaks: 23
80.9650 20505.6016
85.0258 4090.9956
112.9857 5506.4292
146.9607 8847.8428
148.9559 8786.3027
158.9817 4371.9927
174.9561 21974.5566
192.9990 3820.4802
217.9374 7609.2056
266.9807 4897.1162
304.9175 5840.1582
314.9941 4583.4912
320.9961 5376.0854
340.9925 11911.8457
352.9927 6180.3198
360.9964 13990.2559
375.1879 6338.5435
375.2895 63546.1367
381.0003 14303.0127
400.9981 17486.2441
420.9940 46166.1680
421.2142 9860.3525
421.3028 7200.7549

Name: 637542 (4-COUMARATE)
RT: 6.540000
PUBCHEM_COMPOUND_CID: 637542
Precursor_type: [M-H]-
PrecursorMZ: 163.0402
Comment: 6.54_163.0402m/z
Formula: C9H8O3
Num Peaks: 22
59.9878 1254.4170
82.0446 3543.9821
89.9262 3501.8052
92.9967 3757.5436
93.0335 1773.6413
96.1166 3817.4404
108.1607 3765.8245
115.9205 10218.6553
116.9289 31014.9395
118.9262 3227.9388
118.9953 95726.1641
119.0503 2495954.9115
119.9073 29001.6790
130.4183 1212.8140
134.8945 13229.2285
134.9823 3216.1720
139.5068 1282.8541
142.9923 11724.3494
162.8937 186724.1771
162.9328 2624.1081
163.0085 3280.6234
163.0401 663727.7083


Name: 53477676 (CORTEXOLONE)
RT: 11.550000
PUBCHEM_COMPOUND_CID: 53477676
Precursor_type: [M+Cl]-
PrecursorMZ: 381.1843
Comment: 11.55_346.2149n
Formula: C21H30O4
Num Peaks: 19
71.3634 4079.1819
77.8932 3731.4451
80.3262 3688.2017
88.7621 3403.6738
94.2934 3529.2756
119.6774 3871.0720
160.9846 4051.1199
164.9268 5457.7598
174.9567 8721.2803
184.6895 4002.9146
276.9971 4226.4233
280.9857 3972.8589
294.9730 4722.0781
300.9946 12985.6016
320.9981 8492.4873
340.9926 14700.9277
361.0036 13785.4434
381.0064 22680.6958
381.1842 11770.9561

Name: 53477676 (CORTEXOLONE)
RT: 11.550000
PUBCHEM_COMPOUND_CID: 53477676
Precursor_type: [M+FA-H]-
PrecursorMZ: 391.2131
Comment: 11.55_346.2149n
Formula: C21H30O4
Num Peaks: 47
51.0615 3547.6099
58.4455 1881.3046
102.9336 11882.9121
103.1712 2374.2510
106.9279 5391.5996
122.4716 3135.7122
139.4684 2551.0261
146.9612 35576.9727
146.9855 3622.3525
157.2690 4004.1995
158.6045 3123.6943
162.6762 3252.7815
174.9561 116481.5195
178.9276 3186.9275
185.3881 3307.9055
216.9899 2836.6887
221.6187 3696.4902
232.8907 12061.4766
266.9849 31161.3916
271.9879 3923.3162
276.8806 3289.3638
278.8957 2561.6743
279.8948 26376.2305
285.1867 17181.5151
286.9947 15970.6929
290.9828 3305.1338
299.1669 31097.2939
306.9968 4035.0244
310.1108 3254.1423
310.9955 3094.2156
313.1809 54953.5078
315.1966 513502.4341
315.2848 8120.8267
322.8878 2138.2529
323.8804 4062.5637
327.1974 25136.6797
330.9922 3793.4648
345.2088 6256.0669
347.1932 4502.5601
350.9922 5562.2368
350.9993 3763.0286
370.9945 3792.0935
371.0016 4166.4507
390.9944 5541.5869
391.0022 6373.7813
391.2050 4942.3447
391.2101 6021.3730

Name: 439763 (Sodium taurolithocholate)
RT: 14.620000
PUBCHEM_COMPOUND_CID: 439763
Precursor_type: [M-H]-
PrecursorMZ: 482.2949
Comment: 14.62_482.2949m/z
Formula: C26H45NO5S
Num Peaks: 23
59.2617 1220.7690
63.1680 14814.9036
66.4010 1592.2231
67.4413 1634.4694
79.9571 3313.9059
80.9652 1799.2695
106.9807 39135.7591
112.9841 1363.0221
124.0072 51710.7409
136.7089 1492.0244
148.9545 1652.4461
172.1290 1562.6157
174.9560 6097.8838
219.9782 2703.5994
221.6262 17824.0677
278.9104 9003.8447
402.9811 1790.9404
422.9824 2157.5765
442.9954 4470.4027
462.9971 1969.9391
463.0089 2653.0207
482.0280 4987.8245
482.2946 17982202.3646

Name: 10133 (Chenodeoxycholic acid)
RT: 14.920000
PUBCHEM_COMPOUND_CID: 10133
Precursor_type: [M-H]-
PrecursorMZ: 391.2859
Comment: 14.92_392.2932n
Formula: C24H40O4
Num Peaks: 46
56.4921 17960.5495
57.1088 18549.2487
59.9287 20284.7813
65.7261 21294.0573
66.1439 18005.5482
69.0343 31372.5417
90.5116 1922.0568
96.9598 2961.8587
102.9327 5175.7256
106.9283 1969.8123
108.8605 20125.4336
119.7147 22410.3177
146.9601 10783.8851
174.9557 38763.0378
189.0359 1849.2575
202.0280 1462.5685
217.3360 44209.5208
217.9196 3201.4652
225.4961 1816.5171
232.8932 5751.2257
266.9866 15400.8392
279.8957 5243.7179
286.9948 8356.4473
302.9897 2243.5960
306.9983 1568.4080
311.0016 5001.5568
322.9910 2361.6908
322.9972 1679.9894
327.2698 308990.7292
329.2859 216506.3125
330.9882 6532.7031
332.8543 2600.4844
343.2645 161377.3438
345.2782 1037934.6147
347.2963 453569.2500
347.3887 37667.7578
349.7332 1549.6517
350.9904 12260.5820
355.2642 257080.7292
365.3078 181326.1875
370.9977 13421.1309
373.2766 95534.2018
389.2750 41969.0729
390.9977 30358.1133
391.0395 21220.0938
391.2855 30159952.2298

Name: 10133 (Chenodeoxycholic acid)
RT: 14.920000
PUBCHEM_COMPOUND_CID: 10133
Precursor_type: [M+Cl]-
PrecursorMZ: 427.2627
Comment: 14.92_392.2932n
Formula: C24H40O4
Num Peaks: 26
118.9671 4779.3535
132.9825 6313.3735
146.9628 7299.4634
160.9774 42274.8711
174.5966 3748.9121
174.9546 6005.9697
194.9315 3954.8372
218.3527 4851.1792
229.0426 3791.5872
245.5320 4235.2129
269.0722 6973.2559
283.0858 18143.5977
285.1018 95279.3438
297.1527 5932.7759
299.1186 6164.5352
326.9935 7385.7563
337.0298 4981.3896
347.0015 8019.2012
359.0095 4729.7466
366.9981 12631.8799
381.1966 161413.5000
386.9976 13360.3018
391.2842 42676.0586
406.9954 18242.9160
426.9907 97785.7754
427.2503 11767.0381

Name: 10133 (Chenodeoxycholic acid)
RT: 14.920000
PUBCHEM_COMPOUND_CID: 10133
Precursor_type: [M+FA-H]-
PrecursorMZ: 437.2914
Comment: 14.92_392.2932n
Formula: C24H40O4
Num Peaks: 26
74.5532 4521.3130
98.2978 4620.8843
128.5326 4639.7886
146.9615 7805.8813
155.4644 4635.7168
160.9760 11273.1748
164.9260 8545.2783
174.9554 22583.0605
199.8939 4842.9697
217.7825 13166.7490
272.9956 9345.1221
277.7466 4652.3027
288.9346 6680.0117
292.9978 8619.3281
294.9285 5100.4893
313.0099 7693.2729
316.9849 5549.6563
328.9917 4602.0718
337.0054 4850.5947
356.9875 12344.6182
376.9943 15366.9766
391.2857 879937.6055
396.9949 16602.0254
409.2922 12354.7705
416.9931 21563.9453
436.9874 78510.9688


Name: 8094 (Heptanoic acid)
RT: 12.970000
PUBCHEM_COMPOUND_CID: 8094
Precursor_type: [2M-H]-
PrecursorMZ: 259.1915
Comment: 12.97_259.1915m/z
Formula: C7H14O2
Num Peaks: 36
58.9591 4371.0200
61.9881 8695.3838
84.3583 3747.3618
101.9519 10887.6748
102.9108 6753.8896
102.9488 103191.7578
110.9755 9546.0791
116.9273 6017.8716
145.9415 14902.2090
146.9010 7969.1270
146.9386 157537.0859
146.9622 7442.5503
154.9926 26899.1914
158.9784 3984.6548
163.9526 4216.3154
174.9576 9099.7178
174.9990 43648.7031
189.9337 4648.4170
190.8523 12736.1230
190.9291 50909.0508
190.9895 6324.7798
191.9481 19798.7383
192.9903 20302.2363
195.0076 8740.6094
198.9970 5463.4194
200.8828 4366.1650
212.9805 11758.9395
218.7225 5152.0405
218.9935 11968.2725
227.1655 428343.3750
227.2207 7694.3262
228.1712 8067.1641
230.9886 14319.4355
238.9922 38726.9766
258.9951 77679.3799
259.1917 8804.1992


Name: 5920 (LIOTHYRONINE)
RT: 10.780000
PUBCHEM_COMPOUND_CID: 5920
Precursor_type: [M-H]-
PrecursorMZ: 649.7845
Comment: 10.78_649.7845m/z
Formula: C15H12I3NO4
Num Peaks: 20
50.1806 2391.1401
69.7871 2066.6692
72.0092 66093.2588
72.1451 2549.5242
84.4430 2293.1748
126.9051 1739392.7813
131.2184 2450.4475
197.4608 2663.3555
356.5604 2823.3049
421.5933 3008.1182
448.8538 35899.6328
448.8589 8745.4961
505.8511 18466.6960
522.8789 5413.6089
576.7571 3341.3022
618.1124 2291.2158
632.7526 10275.7285
632.7606 38410.6563
649.7840 29279.3242
649.7921 8575.6514

Name: 10465 (heptadecanoic acid)
RT: 14.420000
PUBCHEM_COMPOUND_CID: 10465
Precursor_type: [M+FA-H]-
PrecursorMZ: 315.2544
Comment: 14.42_315.2544m/z
Formula: C17H34O2
Num Peaks: 50
58.0056 3205.9978
59.0137 23027.1042
68.9955 2185.6829
71.0504 3082.9534
74.5456 1903.3016
112.9854 9382.9460
116.9284 13820.9209
125.0968 2919.3274
127.1110 17282.7212
130.9838 4993.7981
135.9124 14207.1619
141.1286 23120.3333
143.1069 9592.5428
150.9536 2729.1606
155.1090 12029.1553
155.1358 1979.6777
157.1238 6076.0200
158.9791 17744.2778
171.1005 17866.1426
171.1392 11320.9746
172.8853 6164.6814
174.9551 3699.3231
178.9489 18041.1030
179.9041 10216.7224
200.8810 52735.1492
201.1136 9872.6855
206.9867 2623.1554
218.6891 2631.1011
226.9933 2496.4231
226.9998 2289.6293
228.9914 8242.6704
247.0000 2268.9084
254.9907 2991.3184
254.9986 7626.6819
264.9905 2519.5862
266.9863 5122.9263
266.9914 11035.3345
268.8694 14848.1321
274.9979 15937.7197
279.2304 17297.7131
279.2359 2027.9159
294.9850 18929.9355
294.9910 19853.5654
295.2266 4293.2646
297.2447 121929.7920
297.3235 3620.3464
311.2202 2630.7297
313.2375 62706.2920
314.9887 228029.2544
315.2560 1938746.9941

Name: 222528 (Sodium deoxycholate)
RT: 14.940000
PUBCHEM_COMPOUND_CID: 222528
Precursor_type: [M-H]-
PrecursorMZ: 391.2859
Comment: 14.95_391.2859m/z
Formula: C24H40O4
Num Peaks: 29
74.5493 4524.5884
80.9653 4364.3228
100.9341 4358.1831
106.9277 3817.2788
112.9850 4928.0225
146.9623 15875.1523
174.9565 51397.1406
219.5955 5907.4106
232.8922 6236.3965
254.9908 4820.7432
266.9861 25315.0215
276.8781 5370.1255
279.8914 6980.0005
286.9953 12537.0996
302.9877 11055.1211
304.9870 9194.0156
307.0000 6440.5967
310.9941 8755.3984
311.1547 5383.0220
322.9943 6248.2754
327.2671 7980.4282
330.9901 12054.6660
345.2815 22743.0723
347.2951 7036.9277
350.9869 19208.9570
355.2627 6397.5601
370.9953 22628.4844
390.9946 97793.6055
391.2864 623943.6875


Name: 79034 (12-Hydroxydodecanoic acid)
RT: 12.290000
PUBCHEM_COMPOUND_CID: 79034
Precursor_type: [M-H]-
PrecursorMZ: 215.1654
Comment: 12.29_215.1654m/z
Formula: C12H24O3
Num Peaks: 43
54.7362 2040.0947
57.8722 1786.5195
59.0135 2376.5576
79.5749 1629.7678
79.9572 6602.3511
83.0502 11945.5293
99.9260 7948.6606
100.9329 5441.0640
104.9606 2839.9204
112.3087 1748.5295
114.9521 2803.0542
115.9202 6981.0957
116.9276 8510.7942
116.9960 2725.2263
120.9547 2275.3430
125.8730 5606.4287
128.9953 6259.8025
129.0921 2432.6106
130.9442 4518.7705
146.9624 2122.9038
148.9498 9625.4648
152.9966 7711.2104
156.9893 3323.7048
164.9953 2360.7026
166.9908 12962.4043
169.1605 9203.0701
171.1656 6474.6528
171.8671 23121.8867
171.9467 3618.3855
172.8658 6775.3560
173.9628 3347.6492
176.9968 7096.6450
188.0246 4181.0356
194.9845 18309.5137
197.0030 12131.5674
197.1197 2909.2764
197.1556 2275.8135
199.1616 5032.0078
199.8507 13546.5120
212.4923 2047.8771
214.9917 41517.9141
215.1530 2331.1655
215.1654 223682.3135


Name: 5819 (L-Thyroxine)
RT: 11.770000
PUBCHEM_COMPOUND_CID: 5819
Precursor_type: [M-H]-
PrecursorMZ: 775.6832
Comment: 11.77_775.6832m/z
Formula: C15H11I4NO4
Num Peaks: 15
72.0091 36093.9727
85.9803 5045.3779
126.9051 2586870.0000
218.9390 7605.6606
253.8118 8965.3486
319.7987 7221.4648
359.8186 17714.5469
461.8661 6817.1479
475.8764 5952.5850
476.8768 10929.7686
574.7528 61589.3921
588.7701 12685.8516
603.7852 39501.0352
758.6577 13072.3389
775.6918 11421.5479

Name: 5281929 (Methyl jasmonate)
RT: 11.840000
PUBCHEM_COMPOUND_CID: 5281929
Precursor_type: [M-H]-
PrecursorMZ: 223.1341
Comment: 11.84_223.1341m/z
Formula: C13H20O3
Num Peaks: 36
55.6884 3492.8938
78.9590 20022.4375
80.9649 4902.1094
92.9956 13045.2998
99.9258 7247.2876
108.9894 5635.7114
110.9850 25691.7402
116.9958 29217.5938
119.5132 3883.5994
134.1295 4219.0186
139.0163 5035.9722
146.8988 8829.2852
154.8996 5098.4717
154.9928 15265.8633
158.9872 11960.6191
162.8935 14152.4268
163.0003 3729.6824
166.0629 44518.0742
166.9098 28692.0820
166.9914 3845.1934
167.0704 6462.8428
176.9752 6607.9463
177.9025 18644.1172
182.9863 52453.5391
190.8892 11000.9258
192.9275 5283.0107
194.9040 129541.8906
194.9861 12100.4668
195.1387 47565.3359
199.8521 4496.5313
202.9917 46534.2188
208.9186 8890.1592
222.8427 8896.9883
222.8993 26866.3125
222.9967 50212.4102
223.1304 82496.6406

Name: 444795 (Retinoic acid)
RT: 15.640000
PUBCHEM_COMPOUND_CID: 444795
Precursor_type: [M-H]-
PrecursorMZ: 299.2019
Comment: 15.64_299.2019m/z
Formula: C20H28O2
Num Peaks: 14
54.5633 16803.4375
59.0137 17160.2188
72.1440 17657.5918
111.0822 18367.5566
113.0972 76168.2891
116.9289 21794.0781
169.1593 77973.3984
218.2118 34668.2617
238.9981 27784.7363
253.2536 131327.6563
259.0002 31534.1348
278.9947 38001.7656
281.2489 207608.9219
297.2425 114431.9844

Name: 5280450 (Linoleic acid)
RT: 15.960000
PUBCHEM_COMPOUND_CID: 5280450
Precursor_type: [M+Na-2H]-
PrecursorMZ: 301.2175
Comment: 15.96_301.2175m/z
Formula: C18H32O2
Num Peaks: 50
58.5249 1348.1007
59.0136 3784.3737
67.2281 1346.6789
83.0501 3274.5993
97.0125 3534.4141
112.9863 3380.5649
113.0279 1444.9787
116.9284 4137.8804
116.9958 4545.3021
122.4152 1493.3330
132.9845 5410.2889
136.9327 12543.0495
146.9617 18422.4688
160.9771 25427.9674
164.9276 66511.8438
164.9573 2617.0903
164.9971 2795.6436
166.9923 2838.5397
169.0086 1697.1652
170.9885 1429.3374
174.9556 13579.8138
176.9974 6558.6349
194.9875 6075.5729
197.0030 11257.3896
200.9957 1432.0239
202.9929 1796.2804
203.1812 2383.3906
204.9870 2518.7699
214.9964 1600.0487
216.5505 1668.6785
216.5999 3902.0579
216.9912 6246.9517
219.8032 1588.5794
221.0044 5970.9049
232.9210 3444.2464
232.9837 14222.7793
233.1014 1507.9754
233.9890 1408.5951
237.0042 1733.8060
240.9895 17422.5501
252.9920 9842.0068
257.2291 15493.7096
260.9858 32355.5146
272.9955 3710.6606
280.9908 38664.2566
282.0014 1802.0226
283.2032 3285.2357
300.9964 96261.4001
301.0903 12577.9779
301.1053 10333.0898


Name: 6844 (1-Hydroxy-2-naphthoic acid)
RT: 12.010000
PUBCHEM_COMPOUND_CID: 6844
Precursor_type: [M-H]-
PrecursorMZ: 187.0402
Comment: 12.01_187.0402m/z
Formula: C11H8O3
Num Peaks: 50
59.0140 6028.9810
66.0491 597.5195
68.9958 2300.0859
70.9942 1544.4439
79.9571 37706.4700
80.9651 560.3379
84.9389 7471.4264
92.9960 10875.1827
98.9539 3984.4919
99.0073 1525.1782
99.9259 29348.9063
100.9340 5283.5758
103.0018 1743.2707
112.8940 560.1804
114.9496 3599.3939
115.9208 9739.3164
116.9277 10582.1285
116.9956 31404.2499
118.9272 24197.3859
119.0140 1649.6408
119.0350 32764.5967
119.0520 1169.6703
120.9909 1135.4860
123.0066 3793.7008
125.0977 32583.8641
126.9998 590.8106
129.9370 3974.8210
131.6032 742.3010
140.8872 8766.3394
141.1306 18078.4568
142.8653 5761.0285
142.8988 5770.7892
142.9451 9375.3319
143.0502 1247343.9964
143.0710 656.1018
143.0771 941.6013
143.0920 888.7400
143.8993 12016.1919
144.0788 1175.3555
147.0062 9328.2795
154.9469 5495.2644
158.8928 7740.5483
158.9873 8237.7317
159.0138 712.4839
159.8934 14785.2077
166.9909 45864.1401
168.9634 1158.0063
172.8867 15982.0157
187.0018 28362.0234
187.0400 1327541.7014

Name: 8163 (2-Undecanone)
RT: 12.300000
PUBCHEM_COMPOUND_CID: 8163
Precursor_type: [M+FA-H]-
PrecursorMZ: 215.1654
Comment: 12.30_215.1654m/z
Formula: C11H22O
Num Peaks: 22
73.5620 6752.7310
79.9571 6097.7964
81.7213 6869.1274
99.9257 2380.8247
100.9331 4007.8362
115.9203 6277.8452
116.9279 3806.5708
128.9968 2436.0708
130.9436 5473.9033
153.9132 3404.0039
164.9944 2529.3989
166.9925 19529.9795
169.1598 175257.6511
169.1913 4347.4521
171.8667 36209.6641
194.9843 40968.0293
197.1182 3449.4458
197.1542 79539.2930
198.1491 6970.3110
213.1490 30202.9453
214.9954 40098.9063
215.1652 6721988.7969

Name: 221493 (Cholic acid)
RT: 14.060000
PUBCHEM_COMPOUND_CID: 221493
Precursor_type: [M-H]-
PrecursorMZ: 407.2808
Comment: 14.06_408.2881n
Formula: C24H40O5
Num Peaks: 35
69.0346 36626.0996
74.5351 5811.8096
95.0505 27530.1924
112.9853 6768.9673
165.6367 6354.3691
170.2157 2842.8301
193.1605 4570.2310
195.1743 3668.0085
202.9194 3774.6401
205.1611 3967.3340
207.1771 4235.2725
217.2270 14799.7627
251.2020 45597.1719
289.2166 96471.0000
292.9121 3539.6997
325.2536 46974.9668
326.9868 4454.7979
327.2701 44834.5234
341.2492 25969.2324
343.2650 326165.8521
345.2801 160140.4766
346.9919 7320.4663
353.2494 41940.2227
361.2769 4297.6675
363.2908 136357.7500
366.9941 23085.2490
371.2615 25171.4502
377.3118 4171.2100
386.9946 13754.2471
387.0026 9802.0225
389.2711 50278.0410
405.2699 14175.8428
406.8139 2859.0330
407.0915 8621.1475
407.2806 10199274.5000

Name: 221493 (Cholic acid)
RT: 14.060000
PUBCHEM_COMPOUND_CID: 221493
Precursor_type: [M+FA-H]-
PrecursorMZ: 453.2862
Comment: 14.06_408.2881n
Formula: C24H40O5
Num Peaks: 25
68.7019 4514.1782
101.9754 4344.5669
112.9848 15707.4824
116.9276 6401.2837
117.6331 5270.3975
146.9618 7984.0107
174.9551 22593.8242
304.9126 10027.4785
304.9906 5676.4434
343.2636 14559.1865
345.2823 9808.8184
352.9945 8125.7476
362.1088 4877.4409
363.2927 8262.8643
364.9798 6974.1484
366.9875 6206.5762
372.9995 13214.1191
392.9908 20202.4258
407.2799 1099073.7500
408.2867 27587.3906
412.9999 16713.4102
422.3030 4786.6318
432.9994 18076.6484
452.9961 66675.1113
453.1681 4145.7104

Name: 221493 (Cholic acid)
RT: 14.060000
PUBCHEM_COMPOUND_CID: 221493
Precursor_type: [M+Cl]-
PrecursorMZ: 443.2576
Comment: 14.06_408.2881n
Formula: C24H40O5
Num Peaks: 16
50.1862 3933.3950
73.7148 4236.4980
158.9798 8017.0479
174.9566 6909.7910
218.7431 6389.0693
314.9907 7110.0854
355.0000 4764.2085
362.9872 9245.2832
381.7868 4145.6782
382.9954 17280.5898
402.9870 21603.5098
407.2794 50325.6641
422.9957 25144.1582
429.2492 11772.4131
442.9971 70081.9004
443.2614 30387.8984


Name: 222786 (Cortisone)
RT: 10.260000
PUBCHEM_COMPOUND_CID: 222786
Precursor_type: [M+Cl]-
PrecursorMZ: 395.1636
Comment: 10.26_360.1942n
Formula: C21H28O5
Num Peaks: 20
53.6268 1671.4244
92.0719 1777.1506
99.5425 1840.7507
102.9485 8391.5505
131.7078 1837.8019
146.9390 18873.7598
174.9561 11133.3530
190.8934 2360.9797
190.9277 24440.2051
218.5132 3168.2551
222.5004 1872.0731
250.9888 2067.8696
255.8748 4888.9148
291.0080 3353.0137
299.8664 7192.3804
301.1788 4818.5771
327.8586 2782.1489
329.1748 31334.0225
394.4388 2264.3020
395.1614 68036.2910

Name: 222786 (Cortisone)
RT: 10.260000
PUBCHEM_COMPOUND_CID: 222786
Precursor_type: [M+FA-H]-
PrecursorMZ: 405.1924
Comment: 10.26_360.1942n
Formula: C21H28O5
Num Peaks: 50
57.0342 2587.0338
86.6319 1198.1560
98.3478 1159.4240
103.1870 1723.6743
109.0658 39244.9624
123.0451 8963.8505
123.0816 23552.9365
125.0608 38899.8828
135.0807 12363.3435
136.0525 14362.9174
137.0609 130347.1563
145.9431 1242.4021
146.7487 1194.1563
149.0607 12576.8132
161.0956 1941.1752
163.0756 1784.0621
166.1010 1741.3766
179.1072 8258.8965
200.8801 22410.1636
200.9183 1839.4281
203.1072 14558.5623
204.9911 1194.4430
218.5152 3190.8767
228.1268 1990.3301
240.9890 3799.4081
257.1515 16591.9929
257.1566 4256.0806
259.1326 3900.3755
260.9933 1624.1692
260.9990 6512.3529
268.8664 21113.4893
271.1341 12323.3447
281.0024 6656.3284
283.1682 1575.8453
299.1642 30859.9148
301.1809 105745.4580
302.1848 4275.7139
311.0936 1524.3096
311.1654 98513.3738
311.2483 1715.3323
326.1526 6878.9301
327.1611 58724.1240
329.1763 1448730.8569
341.1784 36914.7827
352.1092 1182.2089
359.1849 10206.2275
359.1900 1966.7441
405.0081 9601.5103
405.0135 1941.3339
405.1885 3594.1357

Name: 5753 (Corticosterone)
RT: 11.430000
PUBCHEM_COMPOUND_CID: 5753
Precursor_type: [M+Cl]-
PrecursorMZ: 381.1842
Comment: 11.43_346.2148n
Formula: C21H30O4
Num Peaks: 30
51.7272 1752.5638
52.2789 1561.8730
64.2603 1827.1978
76.0103 1991.9076
93.9039 1941.6647
104.8549 1730.4348
115.9217 2058.3904
130.9447 2519.5625
146.9621 3062.8972
164.9292 2631.6707
170.1596 1874.2841
172.8110 2025.7917
173.0030 1835.5923
174.9572 8722.9587
187.4763 1776.5269
193.0135 2271.5535
197.9645 2293.5261
217.1854 4080.4314
218.7910 3082.2261
237.0068 5299.0105
256.9908 2273.2778
276.9935 3198.3235
276.9986 2451.0645
280.9897 3971.0066
300.9900 8511.7017
320.9993 7981.5144
340.9951 13128.3774
361.0049 9618.6272
381.0062 17938.1416
381.1851 8039.2529

Name: 5753 (Corticosterone)
RT: 11.430000
PUBCHEM_COMPOUND_CID: 5753
Precursor_type: [M+FA-H]-
PrecursorMZ: 391.2131
Comment: 11.43_346.2148n
Formula: C21H30O4
Num Peaks: 50
56.1988 12942.2243
58.1804 13996.2823
78.0946 1074.3693
90.2144 16016.1897
99.9252 613.0156
102.9333 12663.9023
106.9287 6168.9763
146.9608 28111.0145
174.9564 126257.9353
174.9838 787.8103
216.9888 617.7783
220.8912 636.9402
232.8924 10426.7334
236.2278 643.8199
238.9008 1405.6396
264.9956 615.3536
266.9845 26850.2260
276.8820 6745.6669
278.8954 3158.9666
279.8933 21070.2991
282.9908 643.9371
285.1862 8357.2987
286.9934 16633.6169
290.9875 689.2670
299.1644 17199.6942
301.1069 1316.3417
302.9999 616.4798
306.9929 852.1253
307.0011 4729.1818
310.9934 1506.1990
310.9988 646.0772
313.1821 28585.5527
315.1967 299848.1625
322.8831 1672.6537
322.8910 1240.8106
323.8808 2781.4440
327.1976 13157.5421
330.9879 2899.6858
330.9943 3563.4911
332.8513 723.6134
345.2055 6403.6318
347.1870 2118.6161
350.9829 666.6551
350.9968 5178.4843
371.0001 2915.2573
371.0076 1477.7831
378.2710 600.9789
391.0003 11897.6537
391.2079 8580.2448
391.2155 86252.3521

Name: 2969 (Decanoic acid)
RT: 14.830000
PUBCHEM_COMPOUND_CID: 2969
Precursor_type: [2M-H]-
PrecursorMZ: 343.2859
Comment: 14.83_343.2859m/z
Formula: C10H20O2
Num Peaks: 50
59.0478 2017.9625
60.0371 2117.9438
61.9825 2231.8984
68.9958 4483.5767
77.0699 2150.5566
94.9947 2557.9128
100.9336 4640.8066
101.9525 4581.9409
112.9854 13823.2969
115.9195 2867.2935
120.2610 1993.1436
128.3261 2016.3235
130.9446 5776.2356
141.1281 11891.5273
143.9312 2242.8125
145.9411 12788.5981
155.1434 7946.0154
160.9765 2931.2090
171.1388 11117.0942
183.1413 5532.8918
189.9304 2346.8818
192.9880 2241.4590
199.1341 17723.3027
201.0042 2252.7256
206.8990 6581.7615
216.9899 6481.5256
218.8126 2528.1775
221.5588 2575.1284
229.1425 7871.7119
254.9861 2305.9751
254.9926 2721.2385
256.9842 7640.5425
262.9919 7549.2053
282.9868 25580.5068
294.9910 2220.3013
299.2358 3058.2827
302.9886 25900.9102
303.9986 2108.2209
307.2626 13551.4971
314.9906 3539.6816
322.9948 41289.5054
323.2564 10561.1299
324.0002 2310.5518
325.2004 2430.1687
325.2760 64233.5840
330.1852 2200.0540
341.2691 56711.9082
342.2624 2608.8904
342.9921 125132.9775
343.2857 1101510.0547


